LAMMPS (29 Aug 2024)
OMP_NUM_THREADS environment is not set. Defaulting to 1 thread. (src/comm.cpp:98)
  using 1 OpenMP thread(s) per MPI task
units real
atom_style full
boundary p p p

variable dt equal 1

pair_style lj/cut/coul/long 10
bond_style harmonic
angle_style harmonic
dihedral_style fourier
improper_style cvff
special_bonds amber
pair_modify tail yes mix arithmetic
kspace_style pppm 1.0e-4

read_data relaxed_ultem_10ns.data
Reading data file ...
  orthogonal box = (-25.692763 -25.692763 -25.692763) to (25.692763 25.692763 25.692763)
  1 by 2 by 3 MPI processor grid
  reading atoms ...
  11606 atoms
  reading velocities ...
  11606 velocities
  scanning bonds ...
  3 = max bonds/atom
  scanning angles ...
  6 = max angles/atom
  scanning dihedrals ...
  24 = max dihedrals/atom
  scanning impropers ...
  1 = max impropers/atom
  orthogonal box = (-25.692763 -25.692763 -25.692763) to (25.692763 25.692763 25.692763)
  1 by 2 by 3 MPI processor grid
  reading bonds ...
  12775 bonds
  reading angles ...
  21504 angles
  reading dihedrals ...
  33236 dihedrals
  reading impropers ...
  3220 impropers
Finding 1-2 1-3 1-4 neighbors ...
  special bond factors lj:    0        0        0.5     
  special bond factors coul:  0        0        0.8333333333333334
     4 = max # of 1-2 neighbors
    10 = max # of 1-3 neighbors
    19 = max # of 1-4 neighbors
    22 = max # of special neighbors
  special bonds CPU = 0.003 seconds
  read_data CPU = 0.298 seconds

timestep ${dt}
timestep 1

dump 2 all custom 50000 dump.*.lammpstrj id type x y z

# =========================================================
# 1. РЕЛАКСАЦИЯ (видимый контроль)
# =========================================================
print "===== STAGE 1: INITIAL RELAXATION ====="
===== STAGE 1: INITIAL RELAXATION =====

fix 1 all nvt temp 300.0 300.0 100.0

thermo 1000
thermo_style custom step temp pe ke etotal press lx ly lz pzz

run 5000

CITE-CITE-CITE-CITE-CITE-CITE-CITE-CITE-CITE-CITE-CITE-CITE-CITE

Your simulation uses code contributions which should be cited:

- Type Label Framework: https://doi.org/10.1021/acs.jpcb.3c08419

@Article{Gissinger24,
 author = {Jacob R. Gissinger, Ilia Nikiforov, Yaser Afshar, Brendon Waters, Moon-ki Choi, Daniel S. Karls, Alexander Stukowski, Wonpil Im, Hendrik Heinz, Axel Kohlmeyer, and Ellad B. Tadmor},
 title = {Type Label Framework for Bonded Force Fields in LAMMPS},
 journal = {J. Phys. Chem. B},
 year =    2024,
 volume =  128,
 number =  13,
 pages =   {3282–-3297}
}

CITE-CITE-CITE-CITE-CITE-CITE-CITE-CITE-CITE-CITE-CITE-CITE-CITE

PPPM initialization ...
  using 12-bit tables for long-range coulomb (src/kspace.cpp:342)
  G vector (1/distance) = 0.23878019
  grid = 20 20 20
  stencil order = 5
  estimated absolute RMS force accuracy = 0.032824742
  estimated relative force accuracy = 9.8850734e-05
  using double precision FFTW3
  3d grid and FFT values/proc = 4875 1600
Generated 45 of 45 mixed pair_coeff terms from arithmetic mixing rule
Neighbor list info ...
  update: every = 1 steps, delay = 0 steps, check = yes
  max neighbors/atom: 2000, page size: 100000
  master list distance cutoff = 12
  ghost atom cutoff = 12
  binsize = 6, bins = 9 9 9
  1 neighbor lists, perpetual/occasional/extra = 1 0 0
  (1) pair lj/cut/coul/long, perpetual
      attributes: half, newton on
      pair build: half/bin/newton
      stencil: half/bin/3d
      bin: standard
Per MPI rank memory allocation (min/avg/max) = 20.85 | 21.15 | 21.22 Mbytes
   Step          Temp          PotEng         KinEng         TotEng         Press            Lx             Ly             Lz            Pzz      
         0   301.03041     -25273.457      10413.334     -14860.122     -716.06948      51.385526      51.385526      51.385526     -1227.5172    
      1000   299.40345     -25416.683      10357.054     -15059.629      99.172035      51.385526      51.385526      51.385526     -510.36344    
      2000   300.77901     -25430.788      10404.638     -15026.15      -35.021817      51.385526      51.385526      51.385526      220.74313    
      3000   301.83783     -25308.763      10441.265     -14867.498      944.52685      51.385526      51.385526      51.385526      819.02818    
      4000   299.56948     -25409.462      10362.798     -15046.664     -386.46773      51.385526      51.385526      51.385526     -226.8378     
      5000   297.96197     -25202.564      10307.19      -14895.374      395.12391      51.385526      51.385526      51.385526     -573.07687    
Loop time of 51.8445 on 6 procs for 5000 steps with 11606 atoms

Performance: 8.333 ns/day, 2.880 hours/ns, 96.442 timesteps/s, 1.119 Matom-step/s
92.0% CPU use with 6 MPI tasks x 1 OpenMP threads

MPI task timing breakdown:
Section |  min time  |  avg time  |  max time  |%varavg| %total
---------------------------------------------------------------
Pair    | 32.893     | 33.811     | 34.475     |  10.2 | 65.22
Bond    | 1.7891     | 1.8504     | 1.8948     |   2.6 |  3.57
Kspace  | 10.805     | 11.439     | 12.367     |  17.2 | 22.06
Neigh   | 3.1867     | 3.1878     | 3.1885     |   0.0 |  6.15
Comm    | 1.1858     | 1.2305     | 1.2776     |   2.6 |  2.37
Output  | 0.0002083  | 0.00024348 | 0.00040046 |   0.0 |  0.00
Modify  | 0.19255    | 0.19388    | 0.19568    |   0.3 |  0.37
Other   |            | 0.131      |            |       |  0.25

Nlocal:        1934.33 ave        1972 max        1880 min
Histogram: 1 1 0 0 0 1 0 0 1 2
Nghost:        11272.2 ave       11344 max       11191 min
Histogram: 1 0 0 2 0 1 0 0 0 2
Neighs:         598454 ave      611518 max      584402 min
Histogram: 1 0 0 1 2 0 0 0 1 1

Total # of neighbors = 3590722
Ave neighs/atom = 309.38497
Ave special neighs/atom = 10.910736
Neighbor list builds = 157
Dangerous builds = 0

unfix 1

# =========================================================
# 2. СТАРТОВЫЕ ЗНАЧЕНИЯ
# =========================================================
variable Lx0 equal lx
variable Ly0 equal ly
variable Lz0 equal lz
variable Pzz0 equal pzz

print "Equilibrated state:"
Equilibrated state:
print "Lx = ${Lx0}"
Lx = 51.385526387773
print "Ly = ${Ly0}"
Ly = 51.385526387773
print "Lz = ${Lz0}"
Lz = 51.385526387773
print "Pzz = ${Pzz0}"
Pzz = -573.076867310029

# =========================================================
# 3. ДЕФОРМАЦИЯ (production)
# =========================================================
print "===== STAGE 3: UNIAXIAL DEFORMATION ====="
===== STAGE 3: UNIAXIAL DEFORMATION =====

fix 2 all npt temp 300.0 300.0 100.0 x 1.0 1.0 1000.0 y 1.0 1.0 1000.0
fix 3 all deform 1 z erate 5e-8 units box remap x

# =========================================================
# 6. STRAIN / STRESS
# =========================================================
variable strain_z equal (lz-${Lz0})/${Lz0}
variable strain_z equal (lz-51.385526387773)/${Lz0}
variable strain_z equal (lz-51.385526387773)/51.385526387773
variable strain_x equal (lx-${Lx0})/${Lx0}
variable strain_x equal (lx-51.385526387773)/${Lx0}
variable strain_x equal (lx-51.385526387773)/51.385526387773
variable strain_y equal (ly-${Ly0})/${Ly0}
variable strain_y equal (ly-51.385526387773)/${Ly0}
variable strain_y equal (ly-51.385526387773)/51.385526387773

variable stress_z equal -(pzz-${Pzz0})/10.0
variable stress_z equal -(pzz--573.076867310029)/10.0

# =========================================================
# 7. MONITORING (каждые 1000 шагов)
# =========================================================
thermo 1000
thermo_style custom step temp lx ly lz pzz v_strain_z v_strain_x v_strain_y v_stress_z

thermo_modify flush yes

fix stress_ave all ave/time 100 10 1000 v_strain_z v_strain_x v_strain_y v_stress_z file stress_strain.dat

run 1000000
PPPM initialization ...
  using 12-bit tables for long-range coulomb (src/kspace.cpp:342)
  G vector (1/distance) = 0.23878019
  grid = 20 20 20
  stencil order = 5
  estimated absolute RMS force accuracy = 0.032824742
  estimated relative force accuracy = 9.8850734e-05
  using double precision FFTW3
  3d grid and FFT values/proc = 4875 1600
Generated 45 of 45 mixed pair_coeff terms from arithmetic mixing rule
Per MPI rank memory allocation (min/avg/max) = 22.52 | 22.53 | 22.55 Mbytes
   Step          Temp            Lx             Ly             Lz            Pzz         v_strain_z     v_strain_x     v_strain_y     v_stress_z  
      5000   297.96197      51.385526      51.385526      51.385526     -573.07687     -6.9138412e-16 -6.9138412e-16 -6.9138412e-16 -7.8443918e-13
      6000   301.21356      51.166579      51.811709      51.388096      1497.9918      5e-05         -0.0042608689   0.0082938346  -207.10686    
      7000   302.8612       51.329276      51.695137      51.390665      142.7057       0.0001        -0.0010946705   0.0060252517  -71.578256    
      8000   302.64829      51.134781      51.707905      51.393234     -201.53645      0.00015       -0.0048796804   0.0062737191  -37.154042    
      9000   297.9102       51.282576      51.804642      51.395803      82.894188      0.0002        -0.0020034852   0.0081562914  -65.597106    
     10000   303.18006      51.02881       52.012316      51.398373      336.14176      0.00025       -0.0069419572   0.01219778    -90.921863    
     11000   301.82488      51.295881      51.738198      51.400942      618.70163      0.0003        -0.0017445718   0.0068632474  -119.17785    
     12000   297.06931      51.369813      51.90102       51.403511     -1040.4255      0.00035       -0.00030578452  0.01003188     46.734863    
     13000   303.01217      51.174811      51.641201      51.406081      144.08318      0.0004        -0.0041006747   0.0049756119  -71.716005    
     14000   300.37549      51.154044      51.762651      51.40865      -369.0207       0.00045       -0.004504808    0.0073391218  -20.405616    
     15000   299.89494      51.392037      51.557187      51.411219      214.6682       0.0005         0.00012670298  0.0033406414  -78.774507    
     16000   300.17038      51.037397      51.76157       51.413788     -964.56755      0.00055       -0.0067748585   0.0073180861   39.149068    
     17000   301.21027      51.064526      51.783562      51.416358      413.02206      0.0006        -0.0062469086   0.0077460619  -98.609892    
     18000   298.54279      51.270274      51.599668      51.418927      881.06307      0.00065       -0.0022428886   0.0041673567  -145.41399    
     19000   299.68398      51.393681      51.673271      51.421496      684.59221      0.0007         0.00015869788  0.0055997119  -125.76691    
     20000   301.0086       51.497773      51.600507      51.424066      1325.7457      0.00075        0.0021843931   0.0041836836  -189.88225    
     21000   300.37468      51.304052      51.473908      51.426635     -615.7775       0.0008        -0.0015855442   0.0017199789   4.2700629    
     22000   295.39569      51.018651      51.706402      51.429204     -1042.2105      0.00085       -0.0071396682   0.0062444797   46.913364    
     23000   302.84711      51.375386      51.688776      51.431773      847.41244      0.0009        -0.00019733167  0.0059014688  -142.04893    
     24000   297.09647      51.411948      51.658682      51.434343      62.164308      0.00095        0.00051418573  0.0053158135  -63.524117    
     25000   300.74432      51.205106      51.810001      51.436912     -412.12567      0.001         -0.0035111192   0.0082605793  -16.09512     
     26000   298.62276      51.225568      51.618907      51.439481     -1134.1187      0.00105       -0.0031129094   0.0045417602   56.104179    
     27000   302.1938       51.144926      51.627462      51.44205      -499.43334      0.0011        -0.0046822683   0.0047082495  -7.3643527    
     28000   301.17816      51.212462      51.765684      51.44462      -586.27592      0.00115       -0.0033679671   0.0073981526   1.3199049    
     29000   301.76145      51.372168      51.865911      51.447189      222.98495      0.0012        -0.00025995671  0.0093486285  -79.606182    
     30000   298.93314      51.295627      51.65615       51.449758     -1966.1024      0.00125       -0.0017495107   0.005266541    139.30256    
     31000   298.7671       51.083249      51.745701      51.452328      320.4943       0.0013        -0.0058825382   0.007009257   -89.357117    
     32000   299.69535      51.34293       51.806552      51.454897      144.19843      0.00135       -0.00082896201  0.0081934623  -71.727529    
     33000   300.09832      51.048139      51.888775      51.457466      152.10852      0.0014        -0.0065657991   0.0097935955  -72.518539    
     34000   299.79825      51.448361      51.738139      51.460035     -1608.7683      0.00145        0.0012227989   0.0068621026   103.56914    
     35000   298.46129      51.291199      51.519209      51.462605     -1303.136       0.0015        -0.0018356767   0.0026015688   73.005911    
     36000   303.57167      51.259498      51.906235      51.465174     -263.44396      0.00155       -0.0024526084   0.010133377   -30.963291    
     37000   300.33666      51.2998        51.535543      51.467743     -815.25159      0.0016        -0.0016683022   0.0029194381   24.217473    
     38000   303.67962      51.074956      51.91398       51.470313     -590.33993      0.00165       -0.0060439302   0.010284094    1.7263065    
     39000   301.99803      51.33051       51.788041      51.472882      8.8092038      0.0017        -0.001070661    0.0078332365  -58.188607    
     40000   299.31465      50.912852      52.056797      51.475451     -1349.0313      0.00175       -0.0091985803   0.01306341     77.595441    
     41000   300.64298      51.338594      51.822947      51.47802       90.122079      0.0018        -0.0009133407   0.0085125347  -66.319895    
     42000   298.48173      51.238901      51.909288      51.48059      -874.94494      0.00185       -0.0028534417   0.010192786    30.186807    
     43000   302.67949      51.265061      51.964735      51.483159     -1056.3399      0.0019        -0.0023443468   0.011271824    48.326303    
     44000   301.65938      51.284062      51.736882      51.485728      398.5098       0.00195       -0.00197458     0.0068376306  -97.158666    
     45000   305.40084      51.174867      51.916101      51.488297      1186.9199      0.002         -0.004099592    0.010325365   -175.99967    
     46000   297.53252      51.280835      51.853959      51.490867     -911.2084       0.00205       -0.0020373695   0.0091160515   33.813153    
     47000   299.638        51.150767      51.715151      51.493436     -614.68816      0.0021        -0.0045685843   0.0064147334   4.161129     
     48000   299.13415      50.93486       51.725585      51.496005     -253.83079      0.00215       -0.0087703001   0.0066177931  -31.924608    
     49000   299.76681      51.133378      51.936838      51.498575      240.60112      0.0022        -0.0049069965   0.010728919   -81.367799    
     50000   296.20685      51.207413      51.53852       51.501144     -1530.5332      0.00225       -0.0034662153   0.0029773699   95.745636    
     51000   299.95399      51.244705      51.81022       51.503713      189.82052      0.0023        -0.0027404836   0.0082648459  -76.289739    
     52000   302.92797      51.302516      51.587         51.506282      27.229121      0.00235       -0.0016154494   0.0039208276  -60.030599    
     53000   295.98692      51.375768      51.445935      51.508852     -1413.5525      0.0024        -0.00018990025  0.0011756008   84.047564    
     54000   300.3337       51.272311      51.667881      51.511421     -388.88234      0.00245       -0.0022032457   0.0054948184  -18.419453    
     55000   300.55131      51.036008      51.641911      51.51399      -1.1622811      0.0025        -0.0068018906   0.0049894405  -57.191459    
     56000   303.48191      51.107727      51.809489      51.516559     -1088.8138      0.00255       -0.0054061872   0.0082506256   51.573693    
     57000   302.21207      51.172199      51.665871      51.519129      927.80147      0.0026        -0.0041515129   0.0054557101  -150.08783    
     58000   296.15285      51.285081      51.538894      51.521698     -970.01852      0.00265       -0.0019547453   0.0029846534   39.694166    
     59000   301.85421      51.146876      51.868918      51.524267     -348.66427      0.0027        -0.0046443191   0.0094071572  -22.44126     
     60000   300.02577      51.392794      51.678553      51.526837     -735.45781      0.00275        0.00014142966  0.005702514    16.238095    
     61000   300.84452      51.08467       51.683874      51.529406      339.24302      0.0028        -0.005854888    0.0058060691  -91.231989    
     62000   303.00727      51.16501       51.830393      51.531975     -1239.8545      0.00285       -0.0042914166   0.0086574207   66.677761    
     63000   302.89151      51.190072      51.714442      51.534544     -1114.196       0.0029        -0.0038036918   0.0064009313   54.111915    
     64000   299.55483      51.416262      51.530784      51.537114     -698.10156      0.00295        0.00059814276  0.0028268278   12.502469    
     65000   299.73716      51.102753      51.652989      51.539683      744.98774      0.003         -0.0055029681   0.0052050274  -131.80646    
     66000   301.72595      51.248722      51.650414      51.542252      120.09954      0.00305       -0.0026623041   0.0051549133  -69.317641    
     67000   298.84871      51.363566      51.522189      51.544822      140.58234      0.0031        -0.00042736196  0.002659552   -71.365921    
     68000   300.70753      51.16587       51.598104      51.547391     -1583.8152      0.00315       -0.0042746705   0.0041369106   101.07384    
     69000   296.5415       51.027858      51.834811      51.54996       60.797538      0.0032        -0.0069604945   0.0087434054  -63.387441    
     70000   305.52259      51.219624      51.747738      51.552529      1061.7455      0.00325       -0.0032285781   0.0070489058  -163.48224    
     71000   299.87031      51.236647      51.463641      51.555099      992.53347      0.0033        -0.0028973056   0.0015201681  -156.56103    
     72000   297.64997      51.006097      51.67844       51.557668     -233.97046      0.00335       -0.0073839678   0.0057003108  -33.910641    
     73000   299.56172      51.110738      51.807378      51.560237     -13.905765      0.0034        -0.0053475903   0.0082095354  -55.91711     
     74000   301.37844      51.014949      51.88512       51.562806     -689.13163      0.00345       -0.0072116994   0.0097224661   11.605476    
     75000   300.01521      51.291707      51.587643      51.565376     -726.91384      0.0035        -0.0018258004   0.0039333286   15.383697    
     76000   301.78194      51.125741      51.627883      51.567945     -1391.9039      0.00355       -0.0050556186   0.0047164389   81.882699    
     77000   296.30086      50.88448       51.735347      51.570514      13.833438      0.0036        -0.0097507221   0.0068077608  -58.691031    
     78000   302.26018      51.216104      51.761678      51.573084      59.120678      0.00365       -0.0032970785   0.0073201864  -63.219755    
     79000   299.98594      51.157547      51.550236      51.575653      1873.8567      0.0037        -0.004436641    0.0032053704  -244.69336    
     80000   302.02833      51.166102      51.734539      51.578222     -784.7057       0.00375       -0.0042701671   0.0067920484   21.162883    
     81000   303.71032      50.940347      51.863276      51.580791     -439.9814       0.0038        -0.0086635172   0.0092973492  -13.309546    
     82000   300.2702       51.359049      51.76314       51.583361     -1386.3165      0.00385       -0.00051526853  0.0073486328   81.323964    
     83000   300.76688      51.046672      51.588068      51.58593       122.09654      0.0039        -0.0065943525   0.0039416133  -69.51734     
     84000   298.90345      51.046234      51.760458      51.588499     -1520.9359      0.00395       -0.0066028811   0.0072964432   94.785901    
     85000   304.82463      51.141327      51.645072      51.591068      809.65001      0.004         -0.0047523079   0.0050509545  -138.27269    
     86000   300.20891      51.276865      51.799637      51.593638     -2067.1         0.00405       -0.0021146225   0.0080588863   149.40231    
     87000   299.19592      51.161589      51.689569      51.596207     -688.19294      0.0041        -0.0043579853   0.0059168853   11.511607    
     88000   300.76787      51.027193      51.893753      51.598776      454.29229      0.00415       -0.0069734225   0.0098904696  -102.73692    
     89000   302.1714       51.18342       51.707781      51.601346      264.91837      0.0042        -0.003933147    0.0062713101  -83.799524    
     90000   296.34054      50.862969      51.839801      51.603915     -99.079257      0.00425       -0.010169354    0.008840517   -47.399761    
     91000   306.01424      51.247434      51.675419      51.606484      52.707066      0.0043        -0.002687388    0.0056415171  -62.578393    
     92000   303.49238      51.176294      51.925737      51.609053      343.60062      0.00435       -0.0040718184   0.010512891   -91.667749    
     93000   298.33376      51.181064      51.565012      51.611623     -1106.349       0.0044        -0.0039789829   0.0034929174   53.327216    
     94000   301.44772      51.087437      51.675825      51.614192     -857.08004      0.00445       -0.0058010326   0.0056494171   28.400317    
     95000   298.90731      51.228058      51.682425      51.616761     -645.32566      0.0045        -0.0030644598   0.0057778549   7.224879     
     96000   299.27863      51.189764      51.726011      51.619331     -1595.2269      0.00455       -0.0038096785   0.0066260749   102.21501    
     97000   300.3079       51.007598      51.683294      51.6219       -673.77949      0.0046        -0.0073547699   0.005794782    10.070262    
     98000   299.69245      51.287937      51.491923      51.624469     -2380.6419      0.00465       -0.0018991674   0.0020705545   180.7565     
     99000   301.94323      51.258617      51.567329      51.627038     -1432.3511      0.0047        -0.0024697418   0.0035380066   85.927419    
    100000   301.17591      51.126502      51.756922      51.629608     -1574.2407      0.00475       -0.0050407979   0.0072276249   100.11638    
    101000   299.48117      51.173817      51.620709      51.632177     -868.46646      0.0048        -0.0041200201   0.004576835    29.53896     
    102000   304.68013      51.084539      51.673011      51.634746     -538.90666      0.00485       -0.0058574272   0.0055946663  -3.4170208    
    103000   297.54582      51.095512      51.572558      51.637315     -880.50655      0.0049        -0.0056438832   0.0036397794   30.742968    
    104000   303.6003       50.883542      51.746529      51.639885     -118.26647      0.00495       -0.0097689916   0.0070253674  -45.48104     
    105000   296.02404      51.36864       51.631317      51.642454     -1819.6008      0.005         -0.00032861895  0.0047832658   124.65239    
    106000   299.60964      50.993626      51.785152      51.645023     -1320.7647      0.00505       -0.0076266684   0.0077770011   74.768779    
    107000   298.62086      51.291056      51.702451      51.647593      636.79646      0.0051        -0.0018384635   0.0061675934  -120.98733    
    108000   295.15559      50.97179       51.714619      51.650162      355.54003      0.00515       -0.0080516134   0.0064043827  -92.86169     
    109000   298.24166      51.169242      51.600298      51.652731      1496.901       0.0052        -0.0042090454   0.0041796125  -206.99779    
    110000   304.10367      51.212702      51.59678       51.6553        926.80007      0.00525       -0.003363291    0.0041111597  -149.98769    
    111000   300.02852      51.034236      51.758812      51.65787      -1539.859       0.0053        -0.0068363704   0.0072644208   96.678211    
    112000   297.82799      51.015032      51.83632       51.660439     -255.81709      0.00535       -0.0072100928   0.0087727748  -31.725978    
    113000   302.1029       51.324641      51.455243      51.663008     -401.30384      0.0054        -0.0011848825   0.0013567354  -17.177303    
    114000   297.70315      50.932614      51.79412       51.665578     -158.16661      0.00545       -0.0088140094   0.00795153    -41.491026    
    115000   303.41697      51.113008      51.833009      51.668147      563.70288      0.0055        -0.0053034107   0.0087083403  -113.67797    
    116000   297.9977       51.353353      51.448131      51.670716      940.65306      0.00555       -0.00062610955  0.0012183293  -151.37299    
    117000   303.23038      51.098976      51.612515      51.673285     -1032.7328      0.0056        -0.0055764756   0.0044173639   45.96559     
    118000   303.08817      51.250324      51.628105      51.675855      189.21735      0.00565       -0.0026311373   0.0047207596  -76.229421    
    119000   303.54037      51.118451      51.627167      51.678424      381.37542      0.0057        -0.0051974781   0.00470251    -95.445228    
    120000   295.0864       51.126787      51.479325      51.680993     -735.5846       0.00575       -0.0050352658   0.0018253958   16.250773    
    121000   299.30569      50.838427      51.704674      51.683562      130.701        0.0058        -0.010646964    0.0062108534  -70.377787    
    122000   298.55397      51.062748      51.631936      51.686132     -1523.7823      0.00585       -0.0062815026   0.0047953141   95.07054     
    123000   299.12875      51.360678      51.474193      51.688701     -1524.0436      0.0059        -0.000483575    0.0017255102   95.096669    
    124000   295.9478       50.895811      51.679888      51.69127       179.08665      0.00595       -0.0095302157   0.0057284918  -75.216351    
    125000   298.33845      50.985101      51.643384      51.69384       168.9022       0.006         -0.0077925646   0.0050180908  -74.197907    
    126000   302.09162      51.10839       51.442787      51.696409     -1676.9442      0.00605       -0.0053932774   0.0011143388   110.38673    
    127000   301.94663      50.856849      51.733894      51.698978     -521.69153      0.0061        -0.010288446    0.0067794981  -5.1385336    
    128000   298.1141       50.913709      51.712568      51.701547     -685.37993      0.00615       -0.0091819105   0.0063644777   11.230306    
    129000   299.40101      51.31056       51.382871      51.704117     -656.02039      0.0062        -0.0014588975  -5.1672155e-05  8.2943526    
    130000   302.7609       51.220967      51.674914      51.706686     -1850.7753      0.00625       -0.0032024535   0.005631686    127.76984    
    131000   296.62173      50.798324      51.940956      51.709255     -546.31638      0.0063        -0.011427397    0.010809065   -2.676049     
    132000   302.37885      51.235431      51.54759       51.711824      189.74768      0.00635       -0.0029209633   0.0031538723  -76.282455    
    133000   298.89569      51.33366       51.605634      51.714394     -836.90523      0.0064        -0.0010093595   0.004283461    26.382836    
    134000   300.81012      50.702531      51.749851      51.716963     -266.72684      0.00645       -0.013291584    0.0070900326  -30.635002    
    135000   302.45097      51.315209      51.732815      51.719532     -730.56308      0.0065        -0.0013684335   0.0067584949   15.748621    
    136000   295.8624       51.044003      51.719739      51.722102     -490.30274      0.00655       -0.0066462919   0.0065040227  -8.2774123    
    137000   301.61888      51.093631      51.588726      51.724671     -1816.9882      0.0066        -0.005680506    0.0039544127   124.39113    
    138000   298.73133      50.998363      51.786917      51.72724      -316.08912      0.00665       -0.0075344809   0.0078113547  -25.698775    
    139000   301.31502      51.137309      51.605068      51.729809     -1393.3         0.0067        -0.0048304919   0.0042724453   82.022309    
    140000   300.27097      51.290702      51.473579      51.732379     -1912.1784      0.00675       -0.0018453569   0.0017135733   133.91015    
    141000   299.51298      50.842298      51.929634      51.734948     -448.46615      0.0068        -0.010571616    0.010588732   -12.461072    
    142000   302.93072      50.970394      51.672272      51.737517      1071.9346      0.00685       -0.0080787815   0.0055802716  -164.50115    
    143000   297.289        51.270278      51.764018      51.740087      584.96021      0.0069        -0.002242826    0.0073657223  -115.80371    
    144000   300.22434      50.967077      51.532141      51.742656      41.362494      0.00695       -0.008143328    0.0028532338  -61.443936    
    145000   300.55542      51.039589      51.520897      51.745225     -134.79051      0.007         -0.0067321919   0.0026344173  -43.828636    
    146000   300.36224      50.948323      51.688857      51.747794     -886.76824      0.00705       -0.0085082928   0.005903041    31.369137    
    147000   300.9448       51.06055       51.543672      51.750364     -438.73367      0.0071        -0.0063242845   0.003077636   -13.43432     
    148000   301.55059      51.248275      51.481165      51.752933     -272.0699       0.00715       -0.0026710051   0.0018612064  -30.100696    
    149000   298.26988      51.049049      51.712631      51.755502     -911.73508      0.0072        -0.0065480971   0.0063656968   33.865821    
    150000   298.41781      50.921156      51.980145      51.758071     -1873.5877      0.00725       -0.0090369897   0.011571717    130.05108    
    151000   298.27959      50.992735      51.691092      51.760641     -427.44019      0.0073        -0.0076440162   0.0059465314  -14.563668    
    152000   302.05934      51.055614      51.701404      51.76321       56.890975      0.00735       -0.0064203345   0.006147218   -62.996784    
    153000   301.83057      51.126743      51.605103      51.765779      889.97692      0.0074        -0.0050361187   0.0042731278  -146.30538    
    154000   297.15212      51.154862      51.859989      51.768349     -1364.0693      0.00745       -0.0044888891   0.0092333978   79.099238    
    155000   297.84023      51.084438      51.592163      51.770918     -207.03494      0.0075        -0.005859405    0.0040212951  -36.604193    
    156000   298.33618      51.078054      51.626946      51.773487      356.27634      0.00755       -0.0059836315   0.0046981936  -92.935321    
    157000   301.38444      51.141801      51.504456      51.776056     -1173.8303      0.0076        -0.0047430813   0.0023144598   60.075346    
    158000   301.58319      50.900247      51.719063      51.778626     -856.72093      0.00765       -0.009443886    0.0064908624   28.364407    
    159000   305.34721      50.857229      51.724072      51.781195      227.30109      0.0077        -0.010281062    0.0065883395  -80.037796    
    160000   299.81612      51.256788      51.650117      51.783764     -860.29015      0.00775       -0.0025053346   0.0051491338   28.721328    
    161000   299.80801      50.893874      51.759851      51.786333     -1101.1533      0.0078        -0.0095679137   0.0072846402   52.807643    
    162000   297.39845      51.066607      51.604191      51.788903      294.74871      0.00785       -0.006206399    0.0042553723  -86.782557    
    163000   298.28508      51.099229      51.644858      51.791472     -1145.0447      0.0079        -0.0055715575   0.0050467771   57.196779    
    164000   298.3714       51.184184      51.132289      51.794041     -582.9513       0.00795       -0.00391828    -0.0049281793   0.98744314   
    165000   299.98699      50.881701      51.644853      51.796611     -716.42481      0.008         -0.0098048084   0.00504668     14.334794    
    166000   299.47975      51.259645      51.550006      51.79918      -1992.7083      0.00805       -0.0024497412   0.0032009007   141.96315    
    167000   298.08387      51.110983      51.601575      51.801749     -961.20826      0.0081        -0.0053428216   0.0042044727   38.813139    
    168000   298.94584      51.054834      51.595842      51.804318     -279.36159      0.00815       -0.0064355096   0.0040928921  -29.371528    
    169000   299.93302      50.920577      51.860875      51.806888      605.04185      0.0082        -0.0090482477   0.0092506284  -117.81187    
    170000   305.59003      50.801233      51.75826       51.809457     -1381.1083      0.00825       -0.011370784    0.0072536717   80.803141    
    171000   297.06486      50.836157      51.70129       51.812026      643.55497      0.0083        -0.01069113     0.0061449911  -121.66318    
    172000   296.95426      51.012608      51.433877      51.814596      230.1414       0.00835       -0.0072572608   0.00094093322 -80.321827    
    173000   302.10797      51.069136      51.60466       51.817165     -966.79303      0.0084        -0.0061571824   0.0042645103   39.371616    
    174000   301.34411      51.01848       51.498819      51.819734      204.97974      0.00845       -0.0071430008   0.0022047521  -77.80566     
    175000   303.5804       51.099149      51.589293      51.822303     -1644.59        0.0085        -0.0055731113   0.0039654386   107.15131    
    176000   301.474        51.205613      51.529449      51.824873      710.00919      0.00855       -0.0035012548   0.0028008385  -128.30861    
    177000   300.74636      50.837293      51.695038      51.827442     -528.66341      0.0086        -0.010669023    0.0060233258  -4.441346     
    178000   298.13712      51.462909      51.386892      51.830011     -1198.6406      0.00865        0.00150592     2.6581796e-05  62.55637     
    179000   299.58086      51.106354      51.55388       51.83258       299.50092      0.0087        -0.0054329082   0.0032762796  -87.257779    
    180000   300.65733      50.943647      51.762738      51.83515      -302.2783       0.00875       -0.0085992895   0.0073408169  -27.079856    
    181000   297.73239      51.000894      51.668632      51.837719      196.18902      0.0088        -0.0074852185   0.0055094501  -76.926589    
    182000   299.63254      50.949504      51.698297      51.840288     -897.3616       0.00885       -0.008485316    0.0060867462   32.428473    
    183000   302.63651      51.049247      51.612864      51.842858     -759.53424      0.0089        -0.0065442444   0.0044241509   18.645737    
    184000   296.79961      51.204222      51.325572      51.845427     -606.88194      0.00895       -0.0035283201  -0.0011667536   3.3805074    
    185000   297.68709      51.032423      51.704285      51.847996     -1393.0848      0.009         -0.0068716506   0.0062032745   82.000793    
    186000   303.16431      50.993786      51.818525      51.850565     -224.06314      0.00905       -0.0076235596   0.0084264642  -34.901373    
    187000   299.24654      51.023239      51.50648       51.853135     -225.63729      0.0091        -0.0070503771   0.0023538479  -34.743957    
    188000   301.23803      51.184956      51.467617      51.855704     -1199.9249      0.00915       -0.0039032554   0.0015975388   62.684803    
    189000   294.29683      50.696894      51.618149      51.858273     -678.32938      0.0092        -0.013401285    0.0045270128   10.525251    
    190000   304.23857      51.326499      51.408471      51.860843     -558.61324      0.00925       -0.0011487235   0.00044651619 -1.4463626    
    191000   298.57261      50.761157      51.727006      51.863412     -1620.1207      0.0093        -0.012150693    0.0066454469   104.70439    
    192000   300.11553      51.000269      51.814144      51.865981     -1642.9837      0.00935       -0.0074973983   0.0083412082   106.99068    
    193000   300.71528      51.126035      51.495183      51.86855      -713.9626       0.0094        -0.0050498997   0.0021339967   14.088573    
    194000   298.7085       50.982705      51.853956      51.87112      -1466.4164      0.00945       -0.007839201    0.0091159814   89.333956    
    195000   304.71312      51.073544      51.750687      51.873689     -609.37649      0.0095        -0.0060714053   0.0071062876   3.6299625    
    196000   300.88569      51.090039      51.36657       51.876258     -1245.6879      0.00955       -0.0057504096  -0.00036890065  67.261104    
    197000   300.27396      51.124264      51.522029      51.878827      920.36305      0.0096        -0.0050843486   0.002656432   -149.34399    
    198000   296.74457      50.862167      51.688568      51.881397     -749.78704      0.00965       -0.010184957    0.005897411    17.671017    
    199000   298.02812      50.871708      51.723019      51.883966     -372.51726      0.0097        -0.0099992918   0.0065678629  -20.055961    
    200000   299.60955      51.260943      51.374146      51.886535     -1278.3874      0.00975       -0.0024244813  -0.00022147257  70.531054    
    201000   298.86917      50.853789      51.83099       51.889105     -617.59473      0.0098        -0.010347992    0.0086690504   4.4517867    
    202000   297.61402      50.99547       51.541196      51.891674     -2892.3321      0.00985       -0.0075907863   0.0030294421   231.92553    
    203000   299.60075      51.059         51.583158      51.894243     -2479.7696      0.0099        -0.0063544469   0.0038460547   190.66928    
    204000   296.83668      50.866284      51.564434      51.896812     -914.45609      0.00995       -0.010104831    0.0034816681   34.137923    
    205000   300.54603      51.02252       51.721548      51.899382     -1086.7986      0.01          -0.007064365    0.00653923     51.372171    
    206000   302.77034      51.106117      51.441913      51.901951     -835.00875      0.01005       -0.0054375051   0.0010973277   26.193189    
    207000   298.23312      51.051503      51.479379      51.90452       923.94012      0.0101        -0.0065003368   0.001826434   -149.7017     
    208000   294.61331      50.819541      51.628609      51.907089      962.85422      0.01015       -0.011014498    0.0047305647  -153.59311    
    209000   300.89057      51.060113      51.466984      51.909659      685.36523      0.0102        -0.0063327786   0.001585222   -125.84421    
    210000   298.37398      51.278178      51.347518      51.912228     -122.43979      0.01025       -0.0020890854  -0.0007396731  -45.063708    
    211000   300.86224      51.040535      51.638553      51.914797     -947.39473      0.0103        -0.0067137897   0.004924079    37.431787    
    212000   297.1685       50.884696      51.50759       51.917367     -1209.3098      0.01035       -0.0097465242   0.00237544     63.623293    
    213000   299.41756      50.947061      51.515041      51.919936      173.81766      0.0104        -0.0085328565   0.0025204566  -74.689453    
    214000   299.19134      51.045629      51.310767      51.922505     -1237.8976      0.01045       -0.0066146614  -0.0014548818   66.482075    
    215000   298.45785      50.976202      51.440719      51.925074     -1355.3989      0.0105        -0.0079657617   0.0010740915   78.232203    
    216000   296.78264      50.970987      51.553078      51.927644     -978.0049       0.01055       -0.0080672448   0.003260682    40.492803    
    217000   300.34706      51.081589      51.694152      51.930213      347.59802      0.0106        -0.0059148408   0.0060060852  -92.067489    
    218000   300.37         51.032099      51.382631      51.932782     -158.6039       0.01065       -0.006877947   -5.6351154e-05 -41.447296    
    219000   301.72201      50.955079      51.696846      51.935352     -615.57343      0.0107        -0.0083768292   0.0060585007   4.2496565    
    220000   297.2968       50.919352      51.598511      51.937921      248.52028      0.01075       -0.0090720935   0.0041448329  -82.159715    
    221000   300.05846      50.971233      51.37445       51.94049      -944.42764      0.0108        -0.0080624473  -0.0002155589   37.135078    
    222000   295.53192      51.055901      51.586         51.943059     -631.76755      0.01085       -0.0064147438   0.0039013602   5.8690678    
    223000   304.26025      50.914914      51.790287      51.945629      27.280979      0.0109        -0.0091584535   0.0078769451  -60.035785    
    224000   295.50931      51.083265      51.570163      51.948198     -792.17111      0.01095       -0.0058822314   0.0035931694   21.909425    
    225000   296.42152      50.913835      51.465554      51.950767     -1081.4152      0.011         -0.0091794682   0.0015573926   50.833829    
    226000   303.052        51.272121      51.459775      51.953336     -1448.2935      0.01105       -0.0022069548   0.001444941    87.521659    
    227000   301.24803      50.709037      51.735305      51.955906      1381.4331      0.0111        -0.013164977    0.0068069446  -195.451      
    228000   298.36362      50.847856      51.638014      51.958475      259.47518      0.01115       -0.010463452    0.004913603   -83.255204    
    229000   302.30064      50.770775      51.564731      51.961044      364.90283      0.0112        -0.011963512    0.0034874616  -93.797969    
    230000   298.30705      50.910514      51.502522      51.963614     -951.584        0.01125       -0.009244093    0.0022768107   37.850713    
    231000   302.21378      50.701875      51.973953      51.966183      156.3002       0.0113        -0.013304357    0.01145122    -72.937706    
    232000   304.38472      50.964012      51.402716      51.968752     -384.94022      0.01135       -0.0082029802   0.00033452238 -18.813665    
    233000   300.45677      51.038466      51.496321      51.971321     -1146.838       0.0114        -0.0067540499   0.0021561429   57.376113    
    234000   300.57204      50.855562      51.713124      51.973891     -950.48332      0.01145       -0.010313501    0.0063752871   37.740645    
    235000   300.60217      51.068218      51.592747      51.97646       169.24213      0.0115        -0.0061750602   0.0040326673  -74.2319      
    236000   297.23282      51.112642      51.369509      51.979029     -1489.8661      0.01155       -0.0053105277  -0.00031171402  91.678922    
    237000   301.19252      50.871776      51.544574      51.981598     -39.778039      0.0116        -0.0099979506   0.0030951755  -53.329883    
    238000   294.0926       51.10389       51.672484      51.984168     -129.62895      0.01165       -0.0054808513   0.0055844037  -44.344792    
    239000   303.29344      51.028618      51.608692      51.986737     -47.731567      0.0117        -0.0069456992   0.0043429627  -52.53453     
    240000   298.85551      50.932806      51.505882      51.989306     -213.80564      0.01175       -0.0088102762   0.002342205   -35.927123    
    241000   302.25826      50.965106      51.420682      51.991876     -318.95702      0.0118        -0.0081816844   0.00068414702 -25.411985    
    242000   298.65485      50.717105      51.694207      51.994445     -1095.2859      0.01185       -0.01300798     0.0060071546   52.2209      
    243000   298.87411      51.125493      51.528283      51.997014     -700.27462      0.0119        -0.0050604392   0.002778145    12.719776    
    244000   301.65006      50.806773      51.786962      51.999583      90.839441      0.01195       -0.01126297     0.0078122246  -66.391631    
    245000   300.67786      50.985779      51.586889      52.002153     -906.52222      0.012         -0.0077793799   0.0039186639   33.344535    
    246000   305.97815      50.910095      51.61889       52.004722      77.469002      0.01205       -0.0092522394   0.004541421   -65.054587    
    247000   298.63151      51.032604      51.485217      52.007291     -1695.3888      0.0121        -0.0068681195   0.0019400607   112.2312     
    248000   299.96139      50.722865      51.744684      52.009861     -533.87654      0.01215       -0.012895878    0.0069894686  -3.9200323    
    249000   301.30372      51.027291      51.515553      52.01243      -1115.2141      0.0122        -0.0069715219   0.0025304121   54.213722    
    250000   301.28357      51.168655      51.470841      52.014999      363.0677       0.01225       -0.004220479    0.0016602757  -93.614457    
    251000   300.52934      50.98736       51.677028      52.017568     -1486.7384      0.0123        -0.007748602    0.0056728437   91.366154    
    252000   303.78685      50.850046      51.639396      52.020138      136.46576      0.01235       -0.010420834    0.0049404916  -70.954262    
    253000   298.5875       50.999723      51.576739      52.022707      496.15924      0.0124        -0.0075080093   0.0037211429  -106.92361    
    254000   296.96994      50.883443      51.651542      52.025276      160.71773      0.01245       -0.0097709197   0.0051768669  -73.37946     
    255000   299.50296      51.194253      51.304951      52.027845     -353.36078      0.0125        -0.003722325   -0.0015680634  -21.971608    
    256000   299.37014      50.795196      51.51839       52.030415     -330.38909      0.01255       -0.011488261    0.0025856313  -24.268777    
    257000   302.93536      50.912431      51.810479      52.032984     -283.13946      0.0126        -0.009206782    0.0082698836  -28.993741    
    258000   303.1722       51.171764      51.45951       52.035553     -882.20041      0.01265       -0.0041599706   0.0014397845   30.912354    
    259000   300.55416      50.838251      51.763053      52.038123     -273.03394      0.0127        -0.010650371    0.0073469378  -30.004293    
    260000   301.5881       51.03071       51.833036      52.040692     -2311.149       0.01275       -0.0069049916   0.008708858    173.80721    
    261000   300.83195      51.064224      51.562096      52.043261      770.77382      0.0128        -0.0062527765   0.0034361805  -134.38507    
    262000   301.11381      51.201473      51.480487      52.04583      -763.25637      0.01285       -0.0035818043   0.0018480021   19.01795     
    263000   299.5025       50.808366      51.830487      52.0484       -1685.6433      0.0129        -0.011231968    0.0086592676   111.25664    
    264000   301.5621       51.027173      51.454446      52.050969      425.52455      0.01295       -0.0069738253   0.001341219   -99.860142    
    265000   304.3365       50.954473      51.672873      52.053538      609.56093      0.013         -0.0083886068   0.0055919826  -118.26378    
    266000   296.7566       51.021853      51.505244      52.056108     -473.75088      0.01305       -0.0070773478   0.0023297962  -9.9325986    
    267000   296.89362      50.920622      51.490364      52.058677      449.32072      0.0131        -0.0090473747   0.0020402186  -102.23976    
    268000   296.57048      51.284693      51.404069      52.061246     -654.82588      0.01315       -0.0019622902   0.00036085053  8.1749009    
    269000   299.38423      50.920371      51.765569      52.063815     -1051.7769      0.0132        -0.0090522693   0.0073959152   47.870004    
    270000   303.45383      50.973994      51.412078      52.066385     -2362.1616      0.01325       -0.008008714    0.0005167235   178.90847    
    271000   301.89299      50.861626      51.547167      52.068954     -1088.1037      0.0133        -0.010195492    0.0031456454   51.50268     
    272000   299.14576      51.147091      51.500148      52.071523     -663.46759      0.01335       -0.0046401366   0.0022306155   9.0390726    
    273000   298.18773      50.841294      51.56767       52.074092      173.90699      0.0134        -0.010591154    0.0035446409  -74.698386    
    274000   301.62668      51.212443      51.375061      52.076662     -1520.7643      0.01345       -0.003368334   -0.00020366498  94.768744    
    275000   301.24895      51.021089      51.607001      52.079231      479.06009      0.0135        -0.0070922218   0.0043100661  -105.2137     
    276000   298.0959       51.089563      51.586375      52.0818       -1033.2625      0.01355       -0.0057596652   0.0039086525   46.018562    
    277000   301.45401      51.133692      51.624101      52.08437       494.59716      0.0136        -0.0049008841   0.0046428434  -106.7674     
    278000   300.77858      50.970975      51.391309      52.086939      153.45625      0.01365       -0.0080674831   0.00011254185 -72.653312    
    279000   305.54435      51.079073      51.707061      52.089508     -1445.8244      0.0137        -0.0059638104   0.0062572959   87.274758    
    280000   302.54631      50.825954      51.679503      52.092077     -296.9011       0.01375       -0.010889682    0.0057209948  -27.617577    
    281000   297.54284      51.093791      51.191035      52.094647      708.68753      0.0138        -0.0056773939  -0.0037849496  -128.17644    
    282000   301.93184      51.066309      51.559012      52.097216     -243.80479      0.01385       -0.0062121977   0.003376157   -32.927208    
    283000   299.41319      51.156229      51.408523      52.099785     -955.00204      0.0139        -0.0044622937   0.00044752996  38.192518    
    284000   302.18075      51.041765      51.485694      52.102354      373.75906      0.01395       -0.0066898525   0.0019493432  -94.683593    
    285000   300.68035      50.700856      51.830125      52.104924     -2277.4971      0.014         -0.013324188    0.008652217    170.44202    
    286000   301.1277       51.155003      51.387842      52.107493     -1083.691       0.01405       -0.0044861582   4.5070367e-05  51.061413    
    287000   299.64336      50.920483      51.532216      52.110062      391.25996      0.0141        -0.0090500799   0.0028546933  -96.433683    
    288000   297.19222      51.161839      51.452667      52.112632     -2630.7197      0.01415       -0.0043531131   0.0013065961   205.76428    
    289000   301.71129      50.813698      51.470879      52.115201     -607.003        0.0142        -0.011128192    0.001661029    3.3926133    
    290000   297.94777      50.785655      51.623417      52.11777      -920.00587      0.01425       -0.011673936    0.0046295295   34.692901    
    291000   299.11411      50.702302      51.759358      52.120339      786.053        0.0143        -0.01329604     0.007275034   -135.91299    
    292000   296.99139      50.983625      51.560041      52.122909     -527.45341      0.01435       -0.007821303    0.0033961735  -4.5623454    
    293000   302.21794      51.27117       51.209978      52.125478      290.49163      0.0144        -0.0022254597  -0.0034162968  -86.35685     
    294000   300.04412      50.773847      51.671741      52.128047      294.06699      0.01445       -0.011903736    0.0055699437  -86.714386    
    295000   303.8141       50.789995      51.767093      52.130617     -621.38264      0.0145        -0.011589481    0.0074255635   4.8305772    
    296000   298.04205      50.980928      51.462278      52.133186     -677.48331      0.01455       -0.0078737782   0.0014936494   10.440644    
    297000   302.0812       50.985958      51.427762      52.135755     -1490.9601      0.0146        -0.007775902    0.00082192701  91.788327    
    298000   300.27442      51.069801      51.633185      52.138324     -699.4582       0.01465       -0.0061442518   0.0048196118   12.638133    
    299000   299.72735      50.872434      51.602169      52.140894     -1152.755       0.0147        -0.0099851528   0.0042160178   57.967809    
    300000   298.44007      51.081297      51.490934      52.143463     -1379.9884      0.01475       -0.0059205249   0.0020513139   80.691155    
    301000   301.00104      50.827498      51.614405      52.146032     -1449.512       0.0148        -0.010859632    0.0044541533   87.643508    
    302000   301.95156      50.598291      51.6416        52.148601      504.1506       0.01485       -0.015320178    0.0049833813  -107.72275    
    303000   302.05377      50.947407      51.430336      52.151171     -803.87438      0.0149        -0.0085261304   0.00087203547  23.079752    
    304000   296.37646      50.806614      51.443953      52.15374      -1810.8987      0.01495       -0.011266067    0.0011370246   123.78218    
    305000   299.13181      50.761552      51.584272      52.156309     -854.38462      0.015         -0.012142991    0.0038677388   28.130776    
    306000   299.16705      50.886243      51.643225      52.158879     -714.52404      0.01505       -0.0097164254   0.0050150104   14.144718    
    307000   299.09311      51.141981      51.582547      52.161448     -193.94106      0.0151        -0.0047395812   0.0038341656  -37.913581    
    308000   302.97688      50.714929      51.760379      52.164017     -512.4302       0.01515       -0.013050323    0.0072949067  -6.0646671    
    309000   300.80656      50.753583      51.557877      52.166586     -1556.1565      0.0152        -0.01229809     0.00335407     98.307968    
    310000   296.68285      50.95222       51.60225       52.169156     -1037.7063      0.01525       -0.0084324627   0.0042176024   46.462943    
    311000   296.64313      50.833596      51.534725      52.171725     -849.23311      0.0153        -0.010740977    0.002903512    27.615624    
    312000   302.84719      50.954325      51.57935       52.174294     -102.73066      0.01535       -0.0083915024   0.0037719401  -47.034621    
    313000   300.66407      50.930015      51.57649       52.176863     -109.72616      0.0154        -0.0088645946   0.0037162994  -46.33507     
    314000   296.65463      50.881786      51.353784      52.179433     -730.41873      0.01545       -0.0098031593  -0.00061773358  15.734187    
    315000   301.22104      51.034801      51.51442       52.182002     -1058.9611      0.0155        -0.0068253802   0.0025083613   48.588427    
    316000   294.68315      51.143526      51.414029      52.184571     -1023.392       0.01555       -0.0047095085   0.00055467358  45.031512    
    317000   304.88088      50.899307      51.632822      52.187141     -1090.0429      0.0156        -0.0094621916   0.0048125548   51.696608    
    318000   301.71308      51.019849      51.358532      52.18971      -1417.8047      0.01565       -0.0071163415  -0.00052532418  84.472782    
    319000   293.33869      50.871286      51.354936      52.192279     -172.64719      0.0157        -0.010007495   -0.00059531537 -40.042968    
    320000   298.6466       50.797835      51.668511      52.194848     -1666.1595      0.01575       -0.011436906    0.0055070858   109.30826    
    321000   298.33157      50.866287      51.357773      52.197418     -873.99166      0.0158        -0.010104777   -0.00054010141  30.091479    
    322000   302.06365      50.827512      51.569708      52.199987      50.527343      0.01585       -0.010859376    0.003584309   -62.360421    
    323000   304.74095      51.052516      51.355054      52.202556     -1144.7062      0.0159        -0.0064806275  -0.00059301624  57.162938    
    324000   295.75748      50.854831      51.39376       52.205126     -1526.6018      0.01595       -0.01032773     0.00016022777  95.352494    
    325000   300.96952      50.873011      51.539627      52.207695      540.95753      0.016         -0.009973932    0.0029989179  -111.40344    
    326000   299.27679      50.958907      51.560898      52.210264     -2158.3989      0.01605       -0.0083023166   0.0034128582   158.53221    
    327000   303.20447      50.579245      51.776512      52.212833     -971.0664       0.0161        -0.015690827    0.0076088673   39.798954    
    328000   298.25845      50.962144      51.471353      52.215403     -1997.6982      0.01615       -0.0082393262   0.0016702542   142.46213    
    329000   300.36507      51.034316      51.257957      52.217972     -1434.0555      0.0162        -0.0068348174  -0.0024825931   86.097866    
    330000   300.12476      50.646726      51.494458      52.220541     -398.21579      0.01625       -0.014377599    0.002119898   -17.486108    
    331000   302.10271      50.813624      51.682352      52.22311      -407.47789      0.0163        -0.011129649    0.0057764499  -16.559898    
    332000   302.94389      51.018963      51.380371      52.22568      -176.81617      0.01635       -0.0071335868  -0.00010032089 -39.62607     
    333000   297.78216      50.744108      51.606648      52.228249     -32.578828      0.0164        -0.012482477    0.0043031804  -54.049804    
    334000   298.69178      50.892561      51.436896      52.230818     -324.44746      0.01645       -0.0095934742   0.00099968987 -24.86294     
    335000   299.71188      51.119268      51.305677      52.233388      371.83245      0.0165        -0.0051815808  -0.0015539265  -94.490932    
    336000   303.89456      50.817657      51.60565       52.235957      829.22073      0.01655       -0.011051153    0.0042837601  -140.22976    
    337000   300.41846      50.892298      51.361245      52.238526     -1035.2666      0.0166        -0.0095985828  -0.00047253548  46.218971    
    338000   294.9972       50.822412      51.538137      52.241095     -2085.524       0.01665       -0.010958623    0.0029699239   151.24472    
    339000   302.8557       50.986613      51.631454      52.243665     -96.917535      0.0167        -0.0077631471   0.0047859236  -47.615933    
    340000   297.38515      51.093472      51.419901      52.246234     -1724.6379      0.01675       -0.0056836004   0.00066896272  115.1561     
    341000   299.12306      50.903727      51.572885      52.248803     -520.04231      0.0168        -0.009376169    0.0036461291  -5.3034558    
    342000   299.83951      50.968408      51.227432      52.251373     -1544.1498      0.01685       -0.0081174375  -0.0030766286   97.10729     
    343000   301.14299      50.635493      51.666877      52.253942     -1687.6659      0.0169        -0.014596195    0.005475294    111.45891    
    344000   295.27111      50.757983      51.523065      52.256511     -1296.1224      0.01695       -0.012212456    0.0026765966   72.304553    
    345000   298.36251      50.987235      51.419799      52.25908      -1230.8464      0.017         -0.0077510433   0.00066697839  65.776958    
    346000   302.19985      50.646857      51.645743      52.26165       97.393182      0.01705       -0.014375049    0.0050639973  -67.047005    
    347000   297.36176      50.986514      51.290625      52.264219     -1876.1552      0.0171        -0.0077650749  -0.001846851    130.30783    
    348000   296.54476      50.791008      51.449435      52.266788     -1120.999       0.01715       -0.01156976     0.0012437126   54.79221     
    349000   300.06572      50.646583      51.61348       52.269357     -193.41411      0.0172        -0.014380387    0.0044361375  -37.966276    
    350000   299.15354      50.964129      51.39416       52.271927     -961.06805      0.01725       -0.008200707    0.00016802038  38.799118    
    351000   299.99949      50.935908      51.60067       52.274496      586.80527      0.0173        -0.008749897    0.0041868446  -115.98821    
    352000   299.35865      50.621809      51.770646      52.277065     -1533.4931      0.01735       -0.014862496    0.0074947116   96.041618    
    353000   303.08997      50.899592      51.422111      52.279635      173.02881      0.0174        -0.0094566432   0.00071196436 -74.610567    
    354000   301.64185      51.100136      51.503139      52.282204     -1761.6148      0.01745       -0.005553899    0.0022888343   118.85379    
    355000   301.21731      50.917686      51.275347      52.284773     -284.94549      0.0175        -0.0091045073  -0.0021441657  -28.813138    
    356000   297.38377      50.988966      51.66808       52.287342     -202.50829      0.01755       -0.007717351    0.0054987054  -37.056858    
    357000   301.85857      50.824905      51.429131      52.289912     -760.25482      0.0176        -0.010910095    0.00084857358  18.717796    
    358000   298.01619      51.081814      51.363529      52.292481     -2433.4856      0.01765       -0.0059104624  -0.00042808106  186.04087    
    359000   301.54334      50.887495      51.658512      52.29505      -1660.1093      0.0177        -0.0096920651   0.0053124972   108.70324    
    360000   299.06705      50.868581      51.49248       52.297619     -778.61728      0.01775       -0.010060146    0.0020813869   20.554042    
    361000   298.05625      50.891728      51.440173      52.300189     -1195.5725      0.0178        -0.0096096695   0.0010634691   62.249561    
    362000   300.21922      50.880752      51.270849      52.302758     -963.96874      0.01785       -0.0098232725  -0.0022317072   39.089188    
    363000   299.45868      51.069203      51.232333      52.305327     -16.247092      0.0179        -0.0061558764  -0.0029812472  -55.682978    
    364000   301.07726      50.844445      51.596224      52.307897      485.19784      0.01795       -0.010529847    0.0041003294  -105.82747    
    365000   296.62662      50.809829      51.580084      52.310466     -1762.4801      0.018         -0.011203491    0.0037862242   118.94032    
    366000   300.28863      50.704961      51.687849      52.313035      135.83173      0.01805       -0.0132443      0.0058834145  -70.89086     
    367000   297.86386      50.798846      51.462502      52.315604     -1696.3949      0.0181        -0.011417225    0.0014979999   112.3318     
    368000   301.77616      51.139621      51.24118       52.318174     -1190.9949      0.01815       -0.0047855066  -0.0028090956   61.7918      
    369000   301.97309      50.879721      51.438392      52.320743     -252.37151      0.0182        -0.0098433424   0.0010288124  -32.070535    
    370000   303.0204       50.712539      51.593766      52.323312     -1708.6283      0.01825       -0.01309683     0.0040525009   113.55515    
    371000   300.96152      50.714553      51.59101       52.325882      54.589356      0.0183        -0.013057641    0.0039988561  -62.766622    
    372000   301.98195      50.946288      51.330985      52.328451     -1263.2367      0.01835       -0.0085479051  -0.0010614153   69.015985    
    373000   300.2939       50.688997      51.58308       52.33102      -739.49273      0.0184        -0.013554973    0.0038445363   16.641586    
    374000   300.85446      51.121964      51.320376      52.333589     -1359.5906      0.01845       -0.0051291118  -0.0012678728   78.651371    
    375000   298.74227      50.969619      51.612875      52.336159     -974.95697      0.0185        -0.0080938562   0.004424368    40.18801     
    376000   297.45652      50.826337      51.32905       52.338728      333.01874      0.01855       -0.010882232   -0.0010990724  -90.609561    
    377000   298.88499      50.761621      51.675378      52.341297     -891.62257      0.0186        -0.012141651    0.005640719    31.85457     
    378000   299.96772      50.989594      51.247231      52.343866     -1419.2158      0.01865       -0.0077051379  -0.0026913249   84.613889    
    379000   299.76161      50.783981      51.439233      52.346436     -1116.3153      0.0187        -0.011706515    0.0010451752   54.323848    
    380000   302.45414      50.727448      51.553012      52.349005     -540.57849      0.01875       -0.012806687    0.0032594006  -3.2498377    
    381000   298.54098      50.978718      51.549634      52.351574     -2282.1007      0.0188        -0.0079167856   0.0031936462   170.90238    
    382000   304.19222      50.802076      51.279186      52.354144      636.37177      0.01885       -0.011354374   -0.0020694691  -120.94486    
    383000   299.03021      50.854593      51.522477      52.356713     -2530.578       0.0189        -0.010332348    0.0026651526   195.75011    
    384000   297.9047       50.931689      51.500272      52.359282      225.81384      0.01895       -0.0088320121   0.0022330269  -79.88907     
    385000   297.21847      50.84847       51.260987      52.361851     -508.96065      0.019         -0.010451511   -0.002423634   -6.4116218    
    386000   294.65561      50.753545      51.525764      52.364421     -1332.5798      0.01905       -0.012298812    0.0027291226   75.950294    
    387000   300.66563      51.059988      51.323404      52.36699      -1154.3299      0.0191        -0.0063352091  -0.0012089387   58.125306    
    388000   301.40323      50.728254      51.485819      52.369559     -588.092        0.01915       -0.012791007    0.0019517715   1.5015137    
    389000   302.07502      50.797988      51.598707      52.372128     -1005.3216      0.0192        -0.011433918    0.0041486568   43.224478    
    390000   301.20245      50.855893      51.459411      52.374698     -1718.7698      0.01925       -0.010307055    0.0014378544   114.56929    
    391000   298.34996      50.857556      51.36047       52.377267     -143.12357      0.0193        -0.010274684   -0.00048761034 -42.99533     
    392000   298.72112      50.903075      51.465853      52.379836     -1408.5649      0.01935       -0.0093888668   0.0015632209   83.548799    
    393000   300.97391      50.688316      51.433602      52.382406     -133.88383      0.0194        -0.01356823     0.0009355802  -43.919304    
    394000   299.11299      51.228198      51.118685      52.384975      915.75426      0.01945       -0.0030617255  -0.0051929343  -148.88311    
    395000   303.97016      50.919829      51.514673      52.387544      1121.8729      0.0195        -0.0090628027   0.0025132897  -169.49498    
    396000   300.98964      50.819413      51.281317      52.390113     -862.61142      0.01955       -0.011016979   -0.0020279876   28.953456    
    397000   298.67238      50.805846      51.350642      52.392683     -668.00389      0.0196        -0.011281014   -0.00067888388  9.4927018    
    398000   304.78613      50.73797       51.583988      52.395252     -445.17425      0.01965       -0.012601927    0.0038622137  -12.790262    
    399000   299.07754      50.936451      51.386526      52.397821     -1031.8834      0.0197        -0.0087393351   1.9460798e-05  45.880657    
    400000   298.23896      50.834482      51.448644      52.400391     -627.98186      0.01975       -0.010723725    0.0012283111   5.4904989    
    401000   302.59909      50.649842      51.350706      52.40296      -811.57343      0.0198        -0.014316958   -0.00067763627  23.849657    
    402000   302.42359      51.033825      51.262564      52.405529      308.59553      0.01985       -0.0068443672  -0.002392947   -88.16724     
    403000   302.20104      50.76809       51.447578      52.408098     -328.56552      0.0199        -0.012015761    0.0012075645  -24.451134    
    404000   297.99218      51.067906      51.219392      52.410668     -1864.0669      0.01995       -0.0061811184  -0.0032331039   129.099      
    405000   301.37966      50.841773      51.463547      52.413237     -226.92625      0.02          -0.010581837    0.0015183453  -34.615062    
    406000   300.92517      50.841916      51.333005      52.415806     -1237.0474      0.02005       -0.010579065   -0.0010221005   66.397054    
    407000   301.55106      50.929605      51.467195      52.418375     -880.70465      0.0201        -0.0088725721   0.0015893249   30.762778    
    408000   300.51498      50.696864      51.531173      52.420945     -1243.5024      0.02015       -0.013401866    0.0028343977   67.042551    
    409000   295.17235      50.615474      51.668066      52.423514     -1394.7261      0.0202        -0.014985788    0.0054984237   82.164921    
    410000   298.04894      50.784008      51.483271      52.426083     -920.70031      0.02025       -0.011705997    0.0019021874   34.762345    
    411000   299.43797      50.948333      51.058703      52.428653     -1053.8274      0.0203        -0.0085081025  -0.006360219    48.075057    
    412000   298.41533      50.811266      51.483426      52.431222     -1456.3657      0.02035       -0.011175525    0.0019052024   88.328883    
    413000   298.26998      50.76895       51.521131      52.433791     -611.44158      0.0204        -0.011999019    0.0026389587   3.8364716    
    414000   296.91734      50.831167      51.303389      52.43636       249.58127      0.02045       -0.010788242   -0.0015984503  -82.265814    
    415000   298.96784      51.098037      51.315199      52.43893      -1293.585       0.0205        -0.0055947458  -0.0013686162   72.050817    
    416000   297.8467       50.608982      51.563918      52.441499     -1526.5168      0.02055       -0.015112126    0.0034716292   95.343997    
    417000   295.96982      50.780438      51.388643      52.444068     -690.8662       0.0206        -0.011775463    6.0646407e-05  11.778933    
    418000   299.40327      50.872996      51.545401      52.446638     -1749.2646      0.02065       -0.0099742188   0.0031112752   117.61878    
    419000   297.7768       50.684549      51.637492      52.449207     -421.28541      0.0207        -0.013641527    0.0049034293  -15.179146    
    420000   303.48386      50.853759      51.22419       52.451776     -863.45721      0.02075       -0.010348578   -0.0031397225   29.038034    
    421000   299.70066      51.022898      51.230085      52.454345     -1553.6313      0.0208        -0.0070570177  -0.0030250003   98.055438    
    422000   302.45494      50.760548      51.539584      52.456915     -652.49843      0.02085       -0.012162542    0.0029980675   7.9421562    
    423000   302.8753       50.722834      51.480101      52.459484      40.755382      0.0209        -0.012896473    0.0018404966  -61.383225    
    424000   301.42672      51.199823      51.23791       52.462053      136.084        0.02095       -0.0036139257  -0.0028727255  -70.916087    
    425000   296.60532      50.676323      51.266363      52.464622     -403.20777      0.021         -0.013801616   -0.0023190007  -16.98691     
    426000   300.8115       50.823649      51.496495      52.467192      71.899362      0.02105       -0.010934551    0.0021595301  -64.497623    
    427000   298.66278      50.845703      51.459878      52.469761      810.92084      0.0211        -0.010505353    0.0014469432  -138.39977    
    428000   299.4334       50.827085      51.434169      52.47233      -1377.2306      0.02115       -0.010867687    0.00094662208  80.415376    
    429000   300.95808      50.908531      51.388384      52.4749       -956.6867       0.0212        -0.0092826798   5.5612441e-05  38.360983    
    430000   301.33298      50.911003      51.241459      52.477469     -1661.0579      0.02125       -0.0092345741  -0.0028036528   108.7981     
    431000   299.10529      50.715866      51.483925      52.480038      175.83734      0.0213        -0.013032091    0.001914917   -74.891421    
    432000   301.69838      51.035044      51.262654      52.482607     -801.71708      0.02135       -0.0068206506  -0.0023911853   22.864021    
    433000   300.48811      50.470374      51.656965      52.485177     -987.31815      0.0214        -0.017809544    0.0052823944   41.424128    
    434000   299.9261       50.746884      51.308501      52.487746     -1832.3267      0.02145       -0.012428453   -0.0014989727   125.92498    
    435000   294.28541      50.933173      51.390294      52.490315     -884.3861       0.0215        -0.0088031333   9.2782392e-05  31.130923    
    436000   300.36555      50.752086      51.520569      52.492884     -866.26104      0.02155       -0.01232721     0.00262802     29.318417    
    437000   295.31938      50.886783      51.337523      52.495454     -1242.2519      0.0216        -0.0097059157  -0.00093417709  66.9175      
    438000   302.5454       50.82036       51.520928      52.498023     -1307.3991      0.02165       -0.010998553    0.0026350179   73.432221    
    439000   301.89049      50.96279       51.245254      52.500592     -965.46096      0.0217        -0.0082267505  -0.0027298002   39.238409    
    440000   300.7734       50.794334      51.520024      52.503162     -531.95756      0.02175       -0.011505039    0.0026174156  -4.1119312    
    441000   300.71715      50.836442      51.431694      52.505731     -509.49155      0.0218        -0.010685581    0.00089845586 -6.3585316    
    442000   299.72698      50.639662      51.4474        52.5083       -889.55591      0.02185       -0.014515059    0.001204109    31.647904    
    443000   298.91436      50.792568      51.445515      52.510869     -1169.6725      0.0219        -0.011539413    0.0011674299   59.659559    
    444000   295.60005      51.00212       51.058592      52.513439     -2595.7971      0.02195       -0.0074613787  -0.006362374    202.27203    
    445000   298.32914      50.603323      51.449811      52.516008     -442.33169      0.022         -0.01522225     0.0012510282  -13.074518    
    446000   301.53878      50.699747      51.437351      52.518577     -1738.3142      0.02205       -0.013345767    0.0010085444   116.52374    
    447000   300.21231      50.824714      51.356662      52.521147     -1272.8833      0.0221        -0.010913827   -0.00056172702  69.980644    
    448000   302.10885      50.615436      51.434908      52.523716     -1436.8786      0.02215       -0.014986524    0.00096099417  86.38017     
    449000   298.92053      50.779042      51.278748      52.526285     -1806.0818      0.0222        -0.011802626   -0.0020779925   123.30049    
    450000   298.97137      50.751266      51.235924      52.528854     -1233.5638      0.02225       -0.012343163   -0.0029113696   66.048692    
    451000   295.11981      50.909794      51.43664       52.531424      120.74271      0.0223        -0.009258108    0.00099471315 -69.381958    
    452000   301.6332       50.722833      51.453814      52.533993     -1941.0877      0.02235       -0.012896506    0.0013289353   136.80108    
    453000   294.66619      50.668614      51.426437      52.536562      160.9148       0.0224        -0.013951646    0.00079615781 -73.399167    
    454000   299.48535      50.957278      51.362559      52.539131     -1416.5427      0.02245       -0.008334027   -0.00044695976  84.346583    
    455000   299.20228      50.519568      51.756272      52.541701     -1304.9641      0.0225        -0.01685219     0.007214983    73.18872     
    456000   297.18277      50.817149      51.397205      52.54427      -643.74628      0.02255       -0.01106104     0.00022728217  7.0669409    
    457000   301.18351      50.973613      51.389727      52.546839      1264.5104      0.0226        -0.0080161314   8.1737644e-05 -183.75873    
    458000   300.90555      50.673623      51.135572      52.549409     -383.33923      0.02265       -0.01385417    -0.0048643032  -18.973764    
    459000   296.146        50.976587      51.399465      52.551978     -844.56102      0.0227        -0.0079582655   0.00027125588  27.148416    
    460000   299.218        50.666241      51.803872      52.554547     -1253.8691      0.02275       -0.013997813    0.0081413059   68.079225    
    461000   303.06883      50.979934      51.279244      52.557116     -1623.1181      0.0228        -0.00789313    -0.0020683235   105.00412    
    462000   297.03521      50.763771      51.503667      52.559686     -1495.1572      0.02285       -0.012099816    0.0022991058   92.208037    
    463000   300.94737      50.633046      51.580561      52.562255     -415.32072      0.0229        -0.014643825    0.003795516   -15.775615    
    464000   303.97746      50.733261      51.465762      52.564824     -1695.2926      0.02295       -0.01269356     0.0015614487   112.22157    
    465000   301.86022      50.646856      51.506394      52.567393      266.88955      0.023         -0.014375072    0.0023521806  -83.996642    
    466000   296.82764      50.493508      51.499208      52.569963     -875.40456      0.02305       -0.017359341    0.0022123333   30.232769    
    467000   301.97085      50.712935      51.32207       52.572532     -1112.6261      0.0231        -0.013089114   -0.0012349115   53.954924    
    468000   300.31319      50.528988      51.594867      52.575101     -922.56225      0.02315       -0.016668864    0.004073917    34.948539    
    469000   300.78834      50.740369      51.360285      52.577671      276.01035      0.0232        -0.012555229   -0.00049121479 -84.908722    
    470000   301.80784      50.809361      51.475197      52.58024      -12.267726      0.02325       -0.011212604    0.0017450579  -56.080914    
    471000   300.6968       50.817661      51.656841      52.582809     -1481.7627      0.0233        -0.011051081    0.0052799843   90.868587    
    472000   300.24163      50.817105      51.342445      52.585378     -865.62013      0.02335       -0.011061903   -0.00083839253  29.254326    
    473000   297.74658      50.922807      51.114645      52.587948     -854.24994      0.0234        -0.00900485    -0.0052715512   28.117307    
    474000   299.2322       50.802108      51.487888      52.590517     -968.78821      0.02345       -0.011353743    0.0019920314   39.571135    
    475000   296.49554      50.955005      51.333829      52.593086     -1624.7694      0.0235        -0.0083782603  -0.0010060638   105.16926    
    476000   304.32062      50.993815      51.487167      52.595656     -1812.5087      0.02355       -0.0076229854   0.0019779937   123.94319    
    477000   299.34017      50.949607      51.27652       52.598225     -1157.3073      0.0236        -0.008483318   -0.0021213414   58.423044    
    478000   303.66943      50.85896       51.473175      52.600794     -1226.9656      0.02365       -0.010247376    0.0017057044   65.388871    
    479000   299.52748      50.778798      51.309283      52.603363     -2581.8695      0.0237        -0.011807382   -0.0014837442   200.87927    
    480000   299.11898      50.87001       51.432499      52.605933     -1592.9601      0.02375       -0.010032335    0.00091412716  101.98833    
    481000   300.05202      50.814152      51.247685      52.608502     -80.519143      0.0238        -0.011119369   -0.0026824938  -49.255772    
    482000   296.73162      50.765349      51.218937      52.611071     -739.79661      0.02385       -0.012069112   -0.0032419528   16.671974    
    483000   304.45438      50.79736       51.460855      52.61364      -1223.8908      0.0239        -0.011446152    0.0014659465   65.081393    
    484000   298.54762      50.972542      51.246582      52.61621      -281.15368      0.02395       -0.0080369784  -0.0027039598  -29.192319    
    485000   295.87784      50.793067      51.55959       52.618779     -72.988673      0.024         -0.011529692    0.0033874118  -50.008819    
    486000   295.48234      50.930573      51.33687       52.621348     -1840.8224      0.02405       -0.008853734   -0.00094689059  126.77455    
    487000   301.0781       50.482622      51.628357      52.623918     -1548.0803      0.0241        -0.017571179    0.0047256572   97.500348    
    488000   296.63031      50.765206      51.483466      52.626487     -1360.593       0.02415       -0.012071892    0.0019059796   78.751611    
    489000   298.51187      50.760742      51.342389      52.629056     -1245.1698      0.0242        -0.012158768   -0.00083947622  67.209298    
    490000   305.11498      51.074213      51.135988      52.631625     -1541.0657      0.02425       -0.0060583858  -0.0048561974   96.79888     
    491000   299.33717      50.81443       51.382772      52.634195     -892.24149      0.0243        -0.011113962   -5.3611023e-05  31.916462    
    492000   299.41211      50.53402       51.467564      52.636764     -1423.2531      0.02435       -0.016570944    0.001596515    85.017624    
    493000   301.17041      50.73141       51.4589        52.639333     -2229.9135      0.0244        -0.012729587    0.0014279104   165.68367    
    494000   301.22148      50.660974      51.415173      52.641903     -821.97355      0.02445       -0.014100311    0.00057695128  24.889668    
    495000   300.94109      50.65882       51.490305      52.644472     -550.37184      0.0245        -0.014142243    0.0020390716  -2.2705026    
    496000   302.22559      50.718633      51.225906      52.647041      358.08997      0.02455       -0.012978225   -0.0031063253  -93.116683    
    497000   298.97599      50.598927      51.433601      52.64961      -348.51359      0.0246        -0.015307809    0.0009355704  -22.456328    
    498000   296.42769      50.552387      51.622727      52.65218      -807.42379      0.02465       -0.016213497    0.0046160898   23.434693    
    499000   297.8259       50.557091      51.553191      52.654749     -1245.8519      0.0247        -0.016121963    0.0032628735   67.277503    
    500000   299.44351      50.918771      51.135394      52.657318     -1637.3318      0.02475       -0.0090833943  -0.0048677637   106.4255     
    501000   301.21399      50.750183      51.201497      52.659887     -135.59835      0.0248        -0.012364254   -0.0035813555  -43.747852    
    502000   297.36122      50.717562      51.234405      52.662457     -334.55926      0.02485       -0.01299908    -0.002940931   -23.851761    
    503000   298.36417      50.804213      51.255987      52.665026     -1649.4671      0.0249        -0.011312782   -0.0025209224   107.63903    
    504000   298.2089       50.611724      51.320972      52.667595     -741.80477      0.02495       -0.015058762   -0.001256284    16.87279     
    505000   296.23104      50.85547       51.316716      52.670165     -2112.4589      0.025         -0.010315284   -0.0013390995   153.9382     
    506000   298.61412      50.736328      51.333062      52.672734     -904.89591      0.02505       -0.012633881   -0.0010210031   33.181904    
    507000   295.12601      50.951462      51.060432      52.675303      28.983729      0.0251        -0.0084472024  -0.0063265727  -60.20606     
    508000   299.96416      50.722874      51.417412      52.677872     -1069.2185      0.02515       -0.012895707    0.00062051497  49.614163    
    509000   303.49382      50.685646      51.484823      52.680442     -2159.3411      0.0252        -0.013620194    0.001932394    158.62642    
    510000   301.17629      50.739685      51.244582      52.683011     -832.49463      0.02525       -0.012568546   -0.0027428835   25.941776    
    511000   301.48126      50.865418      51.26309       52.68558      -1347.7137      0.0253        -0.010121687   -0.0023827092   77.463687    
    512000   302.24164      50.874266      51.344171      52.688149     -1182.4396      0.02535       -0.0099494962  -0.00080481016  60.936275    
    513000   301.74674      50.68311       51.406724      52.690719      189.79411      0.0254        -0.013669539    0.00041251515 -76.287098    
    514000   301.99894      50.861198      51.460101      52.693288     -2044.4331      0.02545       -0.010203816    0.0014512703   147.13563    
    515000   304.68887      50.933355      51.444124      52.695857     -1025.0838      0.0255        -0.0087995933   0.0011403472   45.200692    
    516000   301.98552      50.370487      51.635527      52.698427     -758.40985      0.02555       -0.019753407    0.0048652033   18.533298    
    517000   300.4746       50.777311      51.204955      52.700996     -742.70541      0.0256        -0.011836325   -0.0035140595   16.962854    
    518000   299.9163       50.556634      51.208908      52.703565     -222.79515      0.02565       -0.016130855   -0.0034371268  -35.028171    
    519000   295.94306      50.594343      51.399187      52.706134     -2296.4042      0.0257        -0.015397003    0.00026583626  172.33273    
    520000   299.03883      50.766408      51.408432      52.708704     -283.50711      0.02575       -0.012048497    0.00044576114 -28.956976    
    521000   299.94465      50.744505      51.381994      52.711273     -1764.9879      0.0258        -0.012474741   -6.8735867e-05  119.19111    
    522000   300.74182      50.678773      51.158564      52.713842      579.88831      0.02585       -0.013753943   -0.0044168512  -115.29652    
    523000   298.99662      50.505596      51.515704      52.716412     -653.20815      0.0259        -0.017124097    0.0025333507   8.0131284    
    524000   301.36498      50.851662      51.396044      52.718981      268.29405      0.02595       -0.010389383    0.00020467935 -84.137092    
    525000   303.88033      50.884749      51.442065      52.72155      -1854.0882      0.026         -0.0097454935   0.0011002789   128.10113    
    526000   301.75543      50.731499      51.396817      52.724119     -950.57652      0.02605       -0.012727849    0.00021973074  37.749966    
    527000   298.07342      51.074671      51.166847      52.726689     -1968.5869      0.0261        -0.0060494737  -0.0042556561   139.551      
    528000   301.40934      50.788052      51.237573      52.729258      33.892112      0.02615       -0.011627288   -0.0028792835  -60.696898    
    529000   301.22424      50.685203      51.688704      52.731827     -1588.5926      0.0262        -0.013628807    0.0059000488   101.55158    
    530000   295.94251      50.750282      51.439795      52.734396     -1619.3769      0.02625       -0.012362323    0.0010561149   104.63       
    531000   299.08562      50.867405      51.297756      52.736966     -866.28553      0.0263        -0.010083026   -0.0017080766   29.320866    
    532000   301.64633      50.623846      51.488136      52.739535     -1979.4983      0.02635       -0.014822853    0.0019968499   140.64214    
    533000   301.78304      50.499515      51.471772      52.742104     -2072.4805      0.0264        -0.017242425    0.0016783983   149.94037    
    534000   300.4043       50.648792      51.347812      52.744674      30.791565      0.02645       -0.014337387   -0.00073395411 -60.386843    
    535000   299.53901      50.605049      51.32456       52.747243     -1248.4453      0.0265        -0.015188665   -0.0011864444   67.536844    
    536000   294.99261      50.727104      51.256129      52.749812     -801.4208       0.02655       -0.012813387   -0.0025181648   22.834394    
    537000   301.42951      50.591317      51.343879      52.752381     -183.77361      0.0266        -0.015455896   -0.00081048872 -38.930326    
    538000   297.49097      50.766855      51.233529      52.754951     -651.85358      0.02665       -0.012039789   -0.0029579784   7.8776716    
    539000   301.64719      50.577814      51.623054      52.75752      -983.7483       0.0267        -0.015718679    0.004622459    41.067144    
    540000   303.45917      50.531254      51.560879      52.760089     -974.42376      0.02675       -0.016624776    0.003412487    40.134689    
    541000   301.96094      50.558868      51.475711      52.762658     -886.89553      0.0268        -0.016087386    0.0017550489   31.381866    
    542000   293.20046      50.732867      51.391787      52.765228     -602.60454      0.02685       -0.012701226    0.00012184162  2.952767     
    543000   301.602        50.557701      51.501581      52.767797     -3087.3945      0.0269        -0.01611008     0.0022585158   251.43176    
    544000   303.8356       50.713768      51.332121      52.770366     -79.735745      0.02695       -0.013072904   -0.0010392986  -49.334112    
    545000   300.18397      50.780678      51.17322       52.772936     -459.51849      0.027         -0.011770792   -0.0041316391  -11.355837    
    546000   297.73895      50.743817      51.454422      52.775505     -1419.4541      0.02705       -0.012488138    0.0013407646   84.637726    
    547000   297.49288      50.693913      51.441371      52.778074     -428.99084      0.0271        -0.013459301    0.0010867804  -14.408603    
    548000   305.16508      51.139571      51.064206      52.780643     -1063.493       0.02715       -0.0047864736  -0.0062531278   49.041615    
    549000   299.22841      50.726269      51.278766      52.783213     -65.963526      0.0272        -0.012829637   -0.0020776437  -50.711334    
    550000   299.73047      50.468649      51.31938       52.785782     -161.21506      0.02725       -0.017843111   -0.0012872654  -41.186181    
    551000   299.44977      50.82779       51.10184       52.788351     -707.33298      0.0273        -0.010853968   -0.0055207382   13.425611    
    552000   303.3111       50.64543       51.391248      52.790921     -533.61143      0.02735       -0.014402809    0.00011135317 -3.9465437    
    553000   297.11448      50.791517      51.211342      52.79349      -2209.3511      0.0274        -0.011559861   -0.0033897562   163.62742    
    554000   303.99036      50.730793      51.30599       52.796059     -941.13507      0.02745       -0.012741594   -0.0015478271   36.80582     
    555000   300.04375      50.797369      51.48471       52.798628     -1014.1977      0.0275        -0.011445973    0.0019301901   44.112081    
    556000   302.33896      50.491474      51.400313      52.801198     -202.11202      0.02755       -0.017398918    0.00028776538 -37.096485    
    557000   297.40622      50.70294       51.408591      52.803767     -1156.0549      0.0276        -0.013283631    0.00044885118  58.297806    
    558000   301.35661      50.688887      51.35472       52.806336     -1839.4766      0.02765       -0.013557107   -0.00059951996  126.63998    
    559000   297.56314      50.596096      51.55762       52.808905     -271.09389      0.0277        -0.015362885    0.0033490629  -30.198298    
    560000   299.75657      50.760171      51.358284      52.811475     -1672.7487      0.02775       -0.01216988    -0.00053016405  109.96719    
    561000   300.17303      50.897371      51.232257      52.814044     -640.34089      0.0278        -0.0094998658  -0.0029827336   6.7264025    
    562000   293.77071      50.844442      51.266716      52.816613      235.44691      0.02785       -0.010529908   -0.0023121347  -80.852378    
    563000   301.19825      50.825066      51.308016      52.819183     -552.73178      0.0279        -0.010906965   -0.0015084102  -2.0345084    
    564000   305.28707      50.80131       51.435632      52.821752     -696.29729      0.02795       -0.011369271    0.00097508245  12.322042    
    565000   300.51319      50.733632      51.533204      52.824321     -979.76755      0.028         -0.012686345    0.0028739208   40.669068    
    566000   298.21128      51.082313      51.370709      52.82689      -318.00561      0.02805       -0.0059007631  -0.00028836525 -25.507126    
    567000   300.80238      50.76321       51.193101      52.82946      -300.454        0.0281        -0.012110737   -0.0037447468  -27.262287    
    568000   300.3609       50.697309      51.299555      52.832029     -1154.1522      0.02815       -0.013393217   -0.0016730653   58.10753     
    569000   295.78765      51.052055      51.121154      52.834598     -1355.4067      0.0282        -0.0064895984  -0.0051448735   78.23298     
    570000   296.52583      50.745889      51.360347      52.837168     -837.56679      0.02825       -0.012447809   -0.00049000285  26.448993    
    571000   302.7082       50.71269       51.479584      52.839737     -1777.271       0.0283        -0.013093888    0.0018304258   120.41941    
    572000   295.34035      51.117729      50.923031      52.842306     -56.64573       0.02835       -0.0052115258  -0.0090005014  -51.643114    
    573000   302.48027      50.815125      51.211248      52.844875      726.39876      0.0284        -0.011100428   -0.0033915786  -129.94756    
    574000   301.20777      50.549253      51.495722      52.847445     -2967.182       0.02845       -0.016274484    0.0021444877   239.41052    
    575000   297.76288      50.861875      51.314143      52.850014     -743.8678       0.0285        -0.010190649   -0.0013891688   17.079093    
    576000   300.34646      50.62234       51.279843      52.852583     -768.6206       0.02855       -0.014852161   -0.0020566712   19.554373    
    577000   302.0998       50.797587      51.075351      52.855152     -1492.0377      0.0286        -0.011441734   -0.0060362428   91.896087    
    578000   299.45676      50.666217      51.341295      52.857722      786.10532      0.02865       -0.013998296   -0.00086077749 -135.91822    
    579000   299.55366      50.642435      51.305649      52.860291      96.531581      0.0287        -0.014461098   -0.0015544752  -66.960845    
    580000   299.79622      50.622245      51.357104      52.86286      -456.2963       0.02875       -0.014854015   -0.00055312518 -11.678057    
    581000   298.6628       50.854286      51.309418      52.86543      -1337.7665      0.0288        -0.010338319   -0.0014811224   76.468966    
    582000   299.34028      50.903519      51.177838      52.867999     -678.08107      0.02885       -0.0093802149  -0.0040417616   10.50042     
    583000   299.21067      50.710483      51.332805      52.870568     -1802.387       0.0289        -0.013136832   -0.0010259926   122.93101    
    584000   298.29736      50.831165      51.100757      52.873137     -82.848134      0.02895       -0.010788286   -0.0055418234  -49.022873    
    585000   298.69886      50.67336       51.461703      52.875707     -636.28259      0.029         -0.013859287    0.0014824439   6.3205725    
    586000   298.95473      50.849597      51.214379      52.878276     -1402.4847      0.02905       -0.010429585   -0.0033306444   82.940787    
    587000   296.39122      50.778585      51.31116       52.880845     -910.70111      0.0291        -0.011811526   -0.0014472282   33.762424    
    588000   301.05585      50.488473      51.364281      52.883414     -725.67586      0.02915       -0.017457309   -0.00041344458  15.259899    
    589000   299.06355      50.877956      51.205593      52.885984     -1015.061       0.0292        -0.0098776879  -0.0035016271   44.198417    
    590000   295.79908      50.747564      51.247259      52.888553     -1689.2946      0.02925       -0.012415207   -0.0026907857   111.62177    
    591000   302.31087      50.87085       51.212074      52.891122     -1390.0954      0.0293        -0.010015986   -0.003375511    81.701849    
    592000   302.92738      50.433361      51.468423      52.893692      428.26918      0.02935       -0.018529838    0.001613221   -100.1346     
    593000   302.90139      50.503224      51.263146      52.896261     -1096.3615      0.0294        -0.017170255   -0.0023816085   52.328466    
    594000   296.36805      50.76372       51.340556      52.89883      -601.26053      0.02945       -0.012100809   -0.00087516331  2.8183666    
    595000   303.50883      50.399203      51.393881      52.901399     -63.903069      0.0295        -0.019194578    0.00016259291 -50.91738     
    596000   297.85356      50.526627      51.77502       52.903969     -324.61315      0.02955       -0.016714818    0.0075798316  -24.846371    
    597000   300.11249      50.6876        51.312155      52.906538      669.5768       0.0296        -0.013582164   -0.0014278647  -124.26537    
    598000   297.64786      50.485337      51.396053      52.909107     -1123.877       0.02965       -0.017518345    0.00020484873  55.080015    
    599000   300.7305       50.469999      51.548667      52.911677     -195.46047      0.0297        -0.017816842    0.0031748365  -37.76164     
    600000   302.89277      50.423068      51.529369      52.914246     -1789.1928      0.02975       -0.018730138    0.0027992766   121.61159    
    601000   300.61542      50.757355      51.154283      52.916815     -1914.8041      0.0298        -0.012224669   -0.0045001602   134.17273    
    602000   302.16172      50.559521      51.493465      52.919384     -1655.1371      0.02985       -0.016074669    0.0021005715   108.20602    
    603000   298.69741      50.690498      51.195801      52.921954     -1662.2288      0.0299        -0.013525771   -0.0036921979   108.91519    
    604000   298.48574      50.552919      51.35622       52.924523     -682.35723      0.02995       -0.016203148   -0.00057032973  10.928036    
    605000   299.01913      50.612962      51.288057      52.927092      408.28573      0.03          -0.01503467    -0.0018968244  -98.13626     
    606000   301.95108      50.266754      51.618244      52.929661     -67.552799      0.03005       -0.02177214     0.0045288489  -50.552407    
    607000   299.32364      50.657778      51.072839      52.932231     -2539.4306      0.0301        -0.014162515   -0.0060851295   196.63537    
    608000   304.50505      50.487012      51.399144      52.9348       -264.19414      0.03015       -0.017485739    0.00026501674 -30.888273    
    609000   300.40644      50.542166      51.124349      52.937369     -379.07608      0.0302        -0.01641242    -0.0050827048  -19.400079    
    610000   303.25028      50.604094      51.260598      52.939939     -446.9449       0.03025       -0.01520724    -0.0024311949  -12.613196    
    611000   299.88014      50.475863      51.452942      52.942508     -2090.3814      0.0303        -0.017702721    0.0013119614   151.73045    
    612000   297.54327      50.574632      51.194537      52.945077     -1887.1879      0.03035       -0.015780595   -0.0037167998   131.4111     
    613000   297.21617      50.47178       51.527632      52.947646     -1696.1237      0.0304        -0.01778217     0.0027654821   112.30468    
    614000   301.11477      50.799465      51.264884      52.950216     -2137.3518      0.03045       -0.011405175   -0.0023477932   156.42749    
    615000   299.14026      50.431537      51.422787      52.952785     -1307.9194      0.0305        -0.018565327    0.00072512289  73.484249    
    616000   302.90517      50.508676      51.556503      52.955354     -1227.6052      0.03055       -0.017064159    0.0033273342   65.452836    
    617000   299.78215      50.644037      51.297759      52.957923     -346.04007      0.0306        -0.014429933   -0.0017080147  -22.703679    
    618000   308.09046      50.796303      51.292448      52.960493     -287.66903      0.03065       -0.011466722   -0.0018113666  -28.540783    
    619000   299.84757      50.478831      51.65528       52.963062     -2608.6006      0.0307        -0.017644958    0.0052496114   203.55237    
    620000   302.32943      50.644816      51.306242      52.965631     -688.03954      0.03075       -0.014414763   -0.0015429311   11.496267    
    621000   300.97775      50.641375      51.217577      52.968201     -676.48494      0.0308        -0.014481725   -0.0032684269   10.340807    
    622000   298.95235      50.694346      51.577025      52.97077      -575.49705      0.03085       -0.013450885    0.0037267049   0.2420184    
    623000   299.98017      50.719103      51.227263      52.973339     -1029.1354      0.0309        -0.012969097   -0.0030799153   45.60585     
    624000   302.06206      50.779948      51.175772      52.975908     -1720.6146      0.03095       -0.011785004   -0.0040819646   114.75377    
    625000   300.42463      50.486277      51.297361      52.978478     -1031.4964      0.031         -0.017500044   -0.0017157685   45.841957    
    626000   300.38137      50.398038      51.477262      52.981047      1091.3648      0.03105       -0.019217239    0.0017852366  -166.44417    
    627000   301.23103      50.876914      51.201964      52.983616     -1116.7975      0.0311        -0.0098979762  -0.0035722632   54.372066    
    628000   300.07618      50.522644      51.537546      52.986186     -2744.9441      0.03115       -0.016792328    0.002958416    217.18672    
    629000   300.85862      50.551437      51.358785      52.988755     -620.53859      0.0312        -0.016231985   -0.00052040885  4.7461727    
    630000   298.79918      50.762411      51.278728      52.991324     -1594.2376      0.03125       -0.012126285   -0.0020783677   102.11607    
    631000   301.57569      50.615146      51.174545      52.993893     -927.78953      0.0313        -0.014992159   -0.0041058517   35.471266    
    632000   297.32952      50.489212      51.706193      52.996463     -867.00699      0.03135       -0.017442935    0.0062403986   29.393013    
    633000   302.43286      50.580212      51.464772      52.999032     -1051.6007      0.0314        -0.015672012    0.0015421854   47.852385    
    634000   296.03032      50.735481      51.467634      53.001601     -1961.6814      0.03145       -0.012650361    0.0015978733   138.86045    
    635000   302.03908      50.575588      51.541093      53.00417      -1203.3801      0.0315        -0.015761987    0.0030274474   63.030323    
    636000   301.1394       50.487236      51.458809      53.00674       760.68594      0.03155       -0.017481381    0.0014261398  -133.37628    
    637000   296.86461      50.660339      51.316286      53.009309     -1085.2539      0.0316        -0.014112685   -0.0013474731   51.217699    
    638000   300.09268      50.487646      51.561374      53.011878     -1054.9133      0.03165       -0.017473419    0.0034221158   48.183647    
    639000   300.45924      50.540977      51.357575      53.014448     -1191.7576      0.0317        -0.016435556   -0.00054394754  61.868069    
    640000   300.43687      50.484896      51.436236      53.017017     -1325.1952      0.03175       -0.017526928    0.00098683878  75.211831    
    641000   301.54993      50.570961      51.542956      53.019586     -1381.6284      0.0318        -0.015852038    0.0030636892   80.855152    
    642000   298.80729      50.440147      51.525651      53.022155     -1727.8326      0.03185       -0.018397767    0.0027269321   115.47557    
    643000   298.99173      50.808131      51.213732      53.024725     -325.81548      0.0319        -0.011236535   -0.0033432367  -24.726139    
    644000   299.82294      50.63481       51.331987      53.027294     -167.82317      0.03195       -0.014609495   -0.0010419063  -40.52537     
    645000   299.62751      50.719023      51.35229       53.029863     -1391.1712      0.032         -0.01297065    -0.0006467996   81.809432    
    646000   301.25926      50.578533      51.380545      53.032433      640.75021      0.03205       -0.01570468    -9.6939864e-05 -121.38271    
    647000   297.48808      50.672399      51.263457      53.035002     -826.35288      0.0321        -0.013877979   -0.0023755638   25.327601    
    648000   301.58875      50.765802      51.19559       53.037571     -889.35603      0.03215       -0.012060293   -0.0036962925   31.627916    
    649000   301.30196      50.70944       51.339796      53.04014      -502.33213      0.0322        -0.013157135   -0.00088994758 -7.0744733    
    650000   302.68749      50.553053      51.290951      53.04271      -1557.7678      0.03225       -0.016200551   -0.0018405154   98.469095    
    651000   299.88669      50.592556      51.265011      53.045279     -1193.3572      0.0323        -0.01543178    -0.0023453174   62.028032    
    652000   300.9923       50.536611      51.329399      53.047848     -1088.4096      0.03235       -0.016520508   -0.001092272    51.533269    
    653000   299.77908      50.600987      51.352398      53.050417     -2378.9817      0.0324        -0.015267713   -0.0006447046   180.59048    
    654000   305.79833      50.644519      51.413947      53.052987     -1226.5927      0.03245       -0.014420552    0.00055309399  65.351585    
    655000   300.80593      50.671185      51.095084      53.055556     -778.63299      0.0325        -0.013901616   -0.0056522283   20.555613    
    656000   295.4626       50.720143      51.378176      53.058125     -127.10893      0.03255       -0.012948843   -0.00014305049 -44.596793    
    657000   300.22716      50.846196      51.303728      53.060695      74.001311      0.0326        -0.010495768   -0.0015918616  -64.707818    
    658000   297.82583      50.586851      51.243681      53.063264     -1355.2112      0.03265       -0.015542812   -0.0027604116   78.213436    
    659000   300.5714       50.930688      51.025132      53.065833     -1396.9106      0.0327        -0.0088514819  -0.007013538    82.383372    
    660000   297.05534      50.548751      51.200695      53.068402     -601.46949      0.03275       -0.016284269   -0.0035969607   2.8392618    
    661000   297.90431      50.496711      51.559876      53.070972     -1406.4977      0.0328        -0.017296998    0.0033929759   83.342083    
    662000   303.45193      50.634438      51.403554      53.073541     -513.91518      0.03285       -0.014616724    0.00035083733 -5.9161689    
    663000   301.53854      50.501875      51.249205      53.07611      -955.40645      0.0329        -0.017196501   -0.0026529114   38.232959    
    664000   302.5644       50.868729      51.082544      53.078679     -277.29575      0.03295       -0.010057263   -0.0058962614  -29.578111    
    665000   297.75145      50.44798       51.391889      53.081249     -254.04946      0.033         -0.018245343    0.00012382362 -31.90274     
    666000   302.39628      50.68485       51.104939      53.083818     -1276.4122      0.03305       -0.013635671   -0.0054604291   70.33353     
    667000   296.95248      50.589391      51.338807      53.086387     -1688.1628      0.0331        -0.015493377   -0.00090918876  111.50859    
    668000   298.07379      50.742788      51.138929      53.088957     -681.97798      0.03315       -0.012508154   -0.0047989703   10.890111    
    669000   300.30181      50.669645      51.244985      53.091526     -689.98778      0.0332        -0.01393158    -0.0027350343   11.691092    
    670000   299.38962      50.466845      51.372191      53.094095     -1235.9466      0.03325       -0.017878205   -0.00025951234  66.286975    
    671000   299.75896      50.779946      51.248026      53.096664     -1736.565       0.0333        -0.011785032   -0.0026758637   116.34881    
    672000   300.01481      50.942366      51.088339      53.099234     -2464.2031      0.03335       -0.0086242175  -0.0057834747   189.11263    
    673000   299.50425      50.650747      51.131917      53.101803     -1256.9989      0.0334        -0.014299347   -0.0049354205   68.392198    
    674000   297.98807      50.631259      51.226086      53.104372      118.21625      0.03345       -0.014678596   -0.0031028233  -69.129312    
    675000   302.07696      50.542357      51.290437      53.106942     -1864.7252      0.0335        -0.016408702   -0.0018505189   129.16483    
    676000   295.46375      50.947538      50.996529      53.109511     -2741.7548      0.03355       -0.0085235682  -0.0075701821   216.86779    
    677000   303.5968       50.76583       51.171002      53.11208       8.7736126      0.0336        -0.012059744   -0.0041747956  -58.185048    
    678000   301.72492      50.685551      51.336572      53.114649      709.0489       0.03365       -0.01362204    -0.00095269726 -128.21258    
    679000   301.44557      50.662314      51.089167      53.117219     -1114.4066      0.0337        -0.014074235   -0.0057673645   54.132976    
    680000   303.61491      50.861305      50.941344      53.119788     -346.47124      0.03375       -0.010201738   -0.0086441224  -22.660563    
    681000   300.13081      50.699765      51.241664      53.122357     -1110.9648      0.0338        -0.01334542    -0.0027996629   53.788792    
    682000   298.91432      50.887036      51.118441      53.124926     -930.6898       0.03385       -0.0097009893  -0.0051976846   35.761294    
    683000   292.28433      50.719883      51.129278      53.127496     -2196.4427      0.0339        -0.012953908   -0.0049867759   162.33658    
    684000   298.4906       50.678684      51.270282      53.130065     -910.06529      0.03395       -0.013755668   -0.0022427387   33.698843    
    685000   299.5099       50.834492      50.987195      53.132634     -196.33084      0.034         -0.010723543   -0.0077518219  -37.674603    
    686000   295.61039      50.567317      51.3715        53.135204     -1899.5802      0.03405       -0.015922948   -0.00027297034  132.65033    
    687000   298.57855      50.924435      51.067482      53.137773     -525.84654      0.0341        -0.0089731715  -0.0061893814  -4.7230329    
    688000   297.12525      51.016458      51.241532      53.140342     -1713.1367      0.03415       -0.0071823421  -0.0028022303   114.00598    
    689000   298.43146      50.56607       51.171627      53.142911     -569.6743       0.0342        -0.015947224   -0.0041626465  -0.34025662   
    690000   301.74707      50.646899      51.107433      53.145481     -1486.5013      0.03425       -0.014374236   -0.0054118985   91.342445    
    691000   298.24554      50.789675      50.913916      53.14805      -1120.6149      0.0343        -0.011595712   -0.0091778766   54.753808    
    692000   297.17668      50.653516      51.053056      53.150619     -164.13454      0.03435       -0.014245465   -0.0064701268  -40.894232    
    693000   302.84821      50.613139      51.354879      53.153188     -2305.3752      0.0344        -0.015031225   -0.00059641789  173.22983    
    694000   302.80137      50.359585      51.399067      53.155758      501.82079      0.03445       -0.019965568    0.00026351156 -107.48977    
    695000   295.14099      50.673771      50.978146      53.158327     -1016.1708      0.0345        -0.013851277   -0.007927914    44.309392    
    696000   300.1808       50.693359      51.251374      53.160896     -2269.0056      0.03455       -0.013470091   -0.0026107033   169.59288    
    697000   300.21541      50.777306      51.169962      53.163466     -2487.0677      0.0346        -0.01183642    -0.0041950436   191.39908    
    698000   302.21017      50.593583      51.262772      53.166035     -1349.2275      0.03465       -0.015411793   -0.0023888923   77.615065    
    699000   304.63299      50.468586      51.108875      53.168604     -1975.2526      0.0347        -0.017844324   -0.0053838358   140.21758    
    700000   301.22806      50.563712      51.067828      53.171173     -1202.1481      0.03475       -0.015993101   -0.0061826401   62.907119    
    701000   301.84035      50.651363      50.90455       53.173743      522.59562      0.0348        -0.014287367   -0.0093601616  -109.56725    
    702000   300.50607      50.714167      51.096962      53.176312     -1492.6241      0.03485       -0.013065139   -0.0056156656   91.954722    
    703000   299.93812      50.602982      51.427766      53.178881     -302.36461      0.0349        -0.015228891    0.00082200669 -27.071226    
    704000   299.32043      50.665384      51.119094      53.181451     -1323.014       0.03495       -0.014014501   -0.0051849708   74.993714    
    705000   301.02593      50.729342      51.258138      53.18402      -1804.891       0.035         -0.012769832   -0.0024790767   123.18141    
    706000   299.07143      50.833432      50.935689      53.186589     -9.5351079      0.03505       -0.010744154   -0.0087541614  -56.354176    
    707000   299.55216      50.665403      51.083151      53.189158     -706.01861      0.0351        -0.014014126   -0.0058844531   13.294174    
    708000   303.03108      50.796333      51.033172      53.191728     -339.91598      0.03515       -0.011466139   -0.006857072   -23.316088    
    709000   295.49094      50.698         51.057375      53.194297     -256.58824      0.0352        -0.013379764   -0.0063860685  -31.648863    
    710000   305.00786      50.620477      51.216107      53.196866     -65.188439      0.03525       -0.014888418   -0.0032970279  -50.788843    
    711000   302.14846      50.74621       50.960237      53.199435     -581.95368      0.0353        -0.01244156    -0.0082764521   0.88768082   
    712000   296.55393      50.888593      51.175134      53.202005     -1359.7376      0.03535       -0.0096706856  -0.0040943917   78.666073    
    713000   300.409        50.838544      51.080219      53.204574      238.98843      0.0354        -0.010644675   -0.0059415102  -81.206529    
    714000   304.67933      50.989835      50.945806      53.207143     -903.27806      0.03545       -0.0077004451  -0.0085572728   33.020119    
    715000   299.78208      50.761528      51.244441      53.209713     -1017.5456      0.0355        -0.012143467   -0.0027456156   44.446876    
    716000   298.74895      50.698055      51.298963      53.212282     -1957.4798      0.03555       -0.013378695   -0.0016845854   138.44029    
    717000   297.85912      51.074174      50.802147      53.214851     -339.89867      0.0356        -0.0060591488  -0.01135299    -23.317819    
    718000   298.2988       50.529729      51.215439      53.21742       221.29697      0.03565       -0.016654452   -0.0033100323  -79.437384    
    719000   301.15934      50.556181      51.216015      53.21999      -1848.7761      0.0357        -0.01613967    -0.0032988086   127.56992    
    720000   296.58609      50.740324      51.148497      53.222559     -518.55702      0.03575       -0.012556117   -0.0046127569  -5.4519851    
    721000   299.43488      50.633647      51.015016      53.225128     -1191.4953      0.0358        -0.014632132   -0.0072104131   61.841843    
    722000   298.08128      50.394888      51.458343      53.227698     -1235.6895      0.03585       -0.01927854     0.0014170573   66.261262    
    723000   304.18485      50.883965      51.124342      53.230267     -164.27028      0.0359        -0.0097607469  -0.0050828453  -40.880659    
    724000   301.1937       50.4856        51.094919      53.232836     -2067.5234      0.03595       -0.017513234   -0.0056554237   149.44465    
    725000   298.71348      50.532206      51.1731        53.235405     -372.62052      0.036         -0.016606233   -0.0041339721  -20.045634    
    726000   298.12339      50.681766      51.025602      53.237975     -1102.0469      0.03605       -0.013695688   -0.0070043968   52.896999    
    727000   302.55945      50.940416      50.799733      53.240544     -1998.8228      0.0361        -0.0086621707  -0.01139997     142.57459    
    728000   295.38324      50.356475      51.444839      53.243113     -1513.8758      0.03615       -0.020026097    0.001154265    94.079897    
    729000   300.56256      50.767445      51.064989      53.245682     -1008.0145      0.0362        -0.012028316   -0.0062378997   43.49376     
    730000   298.80107      50.655432      51.197042      53.248252     -1583.8115      0.03625       -0.014208174   -0.0036680425   101.07346    
    731000   302.6502       50.415759      51.224847      53.250821      700.83536      0.0363        -0.01887239    -0.0031269329  -127.39122    
    732000   300.12208      50.87416       50.892817      53.25339      -861.3605       0.03635       -0.009951562   -0.0095884765   28.828363    
    733000   301.12276      50.684909      51.147305      53.25596      -2048.9609      0.0364        -0.013634523   -0.0046359674   147.5884     
    734000   298.4902       50.608827      51.113326      53.258529     -934.75895      0.03645       -0.01511514    -0.0052972148   36.168208    
    735000   298.05238      50.267129      51.015228      53.261098     -320.93648      0.0365        -0.021764837   -0.0072062858  -25.214039    
    736000   300.61764      50.743784      51.102929      53.263667     -663.64761      0.03655       -0.012488783   -0.0054995435   9.0570743    
    737000   299.56258      50.529568      51.231782      53.266237     -242.62849      0.0366        -0.016657577   -0.002991973   -33.044837    
    738000   298.86485      50.572996      50.939992      53.268806     -747.95897      0.03665       -0.015812429   -0.0086704168   17.48821     
    739000   296.91106      50.677426      50.905678      53.271375      1150.9383      0.0367        -0.013780161   -0.0093381931  -172.40152    
    740000   296.74816      50.588223      51.23564       53.273944     -1733.9592      0.03675       -0.015516114   -0.002916907    116.08823    
    741000   297.99986      50.767874      51.034163      53.276514     -893.01683      0.0368        -0.012019962   -0.0068377925   31.993996    
    742000   299.69207      50.487385      51.158143      53.279083     -1115.8632      0.03685       -0.017478496   -0.0044250532   54.278637    
    743000   298.78393      50.623872      51.041301      53.281652     -1804.3559      0.0369        -0.014822361   -0.0066988736   123.1279     
    744000   298.73445      50.798133      50.880681      53.284222      258.76269      0.03695       -0.011431108   -0.0098246518  -83.183956    
    745000   295.66047      50.491069      51.309328      53.286791     -2531.3291      0.037         -0.017406793   -0.0014828725   195.82523    
    746000   296.29649      50.647883      51.052934      53.28936      -1071.9965      0.03705       -0.01435509    -0.0064724891   49.891964    
    747000   297.00481      50.641538      51.166981      53.291929     -832.52537      0.0371        -0.01447855    -0.0042530552   25.94485     
    748000   302.59408      50.66003       51.07391       53.294499     -1736.581       0.03715       -0.014118686   -0.0060642851   116.35041    
    749000   295.70549      50.572102      51.13326       53.297068     -363.42169      0.0372        -0.01582983    -0.0049092887  -20.965518    
    750000   302.30893      50.501574      50.984876      53.299637     -360.33849      0.03725       -0.017202368   -0.0077969491  -21.273838    
    751000   301.49527      50.504751      51.233264      53.302207     -1356.2899      0.0373        -0.017140526   -0.0029631473   78.321304    
    752000   298.19163      50.649178      51.127229      53.304776     -846.4187       0.03735       -0.01432988    -0.0050266553   27.334184    
    753000   301.03194      50.343373      51.132463      53.307345     -1384.1874      0.0374        -0.020281067   -0.0049247966   81.11105     
    754000   300.59991      50.916198      50.862385      53.309914     -93.100756      0.03745       -0.0091334763  -0.010180718   -47.997611    
    755000   301.02854      50.567197      50.965414      53.312484     -555.30767      0.0375        -0.015925286   -0.0081757032  -1.7769194    
    756000   297.26725      50.582166      51.235711      53.315053     -1669.8191      0.03755       -0.015633985   -0.0029155142   109.67422    
    757000   300.34557      50.386277      51.223167      53.317622     -466.67016      0.0376        -0.019446122   -0.0031596254  -10.640671    
    758000   303.04334      50.729214      50.861481      53.320191     -1270.4223      0.03765       -0.012772312   -0.010198302    69.734543    
    759000   302.11493      50.407195      51.199405      53.322761     -834.78319      0.0377        -0.019039048   -0.0036220601   26.170633    
    760000   301.33656      50.54593       51.137312      53.32533      -557.24144      0.03775       -0.016339164   -0.0048304356  -1.5835431    
    761000   298.82031      50.672371      50.909171      53.327899     -1438.3818      0.0378        -0.013878529   -0.0092702237   86.530489    
    762000   301.06321      50.684582      51.064213      53.330469     -2646.7749      0.03785       -0.013640897   -0.0062529979   207.36981    
    763000   299.5117       50.73397       50.92576       53.333038      296.88962      0.0379        -0.012679766   -0.0089473955  -86.996648    
    764000   297.31195      50.642908      51.087911      53.335607     -460.78083      0.03795       -0.014451899   -0.0057918044  -11.229604    
    765000   300.38895      50.605264      51.135162      53.338176     -2170.6705      0.038         -0.015184485   -0.0048722725   159.75936    
    766000   300.15917      50.899129      50.749078      53.340746     -2105.0959      0.03805       -0.0094656553  -0.012385748    153.2019     
    767000   298.32223      50.435613      51.085791      53.343315     -519.53941      0.0381        -0.018486003   -0.0058330637  -5.3537454    
    768000   298.2386       51.001058      51.056302      53.345884     -2530.064       0.03815       -0.0074820387  -0.0064069454   195.69871    
    769000   300.79534      50.681909      50.847245      53.348453     -800.50728      0.0382        -0.013692905   -0.010475356    22.743041    
    770000   300.42742      50.723403      51.253106      53.351023      85.072856      0.03825       -0.012885409   -0.0025769941  -65.814972    
    771000   300.21806      50.573452      50.998617      53.353592     -990.77936      0.0383        -0.01580357    -0.0075295346   41.77025     
    772000   300.0584       50.719424      50.80274       53.356161     -1139.3202      0.03835       -0.012962847   -0.011341455    56.624335    
    773000   297.85751      50.621394      51.117125      53.358731     -1100.5213      0.0384        -0.014870585   -0.0052232962   52.744442    
    774000   300.91076      50.789297      50.998449      53.3613       -835.89452      0.03845       -0.011603054   -0.0075328051   26.281765    
    775000   300.67229      50.643845      51.021702      53.363869     -1439.3849      0.0385        -0.014433669   -0.0070802934   86.630807    
    776000   297.42183      50.564758      50.919652      53.366438      20.86285       0.03855       -0.015972754   -0.0090662617  -59.393972    
    777000   299.88089      50.731907      50.821608      53.369008     -2664.292       0.0386        -0.012719921   -0.010974258    209.12151    
    778000   296.7402       50.556669      51.071032      53.371577     -976.27234      0.03865       -0.016130176   -0.0061202886   40.319547    
    779000   298.39365      50.640137      50.984495      53.374146     -56.543379      0.0387        -0.014505829   -0.0078043662  -51.653349    
    780000   299.89464      50.902023      50.856653      53.376716      31.500199      0.03875       -0.0094093306  -0.010292263   -60.457707    
    781000   300.50807      50.803951      50.682857      53.379285      263.73336      0.0388        -0.011317893   -0.013674463   -83.681023    
    782000   299.58237      50.821438      51.155577      53.381854     -1001.3491      0.03885       -0.01097758    -0.0044749849   42.827223    
    783000   295.33689      50.802698      51.125762      53.384423      153.74003      0.0389        -0.011342262   -0.0050552046  -72.68169     
    784000   300.93276      50.395966      51.178936      53.386993     -599.48703      0.03895       -0.019257578   -0.0040203933   2.6410164    
    785000   299.16138      50.670478      50.840961      53.389562     -1307.5984      0.039         -0.013915372   -0.010597645    73.452158    
    786000   298.0378       50.740556      50.956713      53.392131     -80.778687      0.03905       -0.0125516     -0.0083450278  -49.229818    
    787000   303.44392      50.730463      51.053006      53.3947       -278.25766      0.0391        -0.012748009   -0.006471092   -29.481921    
    788000   301.28291      50.636231      50.776741      53.39727      -597.97819      0.03915       -0.014581841   -0.01184741     2.4901321    
    789000   298.73327      50.837727      50.774285      53.399839     -946.92393      0.0392        -0.010660585   -0.01189521     37.384706    
    790000   302.09743      50.513838      51.163915      53.402408      109.99426      0.03925       -0.016963702   -0.004312719   -68.307113    
    791000   300.61244      50.551492      51.18095       53.404978     -1338.5582      0.0393        -0.016230921   -0.0039812068   76.548129    
    792000   298.15652      50.950953      50.663383      53.407547     -1729.8326      0.03935       -0.0084571098  -0.014053434    115.67557    
    793000   301.78108      50.751267      50.950989      53.410116     -11.378238      0.0394        -0.012343152   -0.008456423   -56.169863    
    794000   299.41806      50.969077      50.843982      53.412685     -1886.8375      0.03945       -0.0081044009  -0.010538856    131.37607    
    795000   301.15704      51.107001      50.73858       53.415255     -1364.3507      0.0395        -0.0054203021  -0.01259006     79.127383    
    796000   298.5767       50.690558      50.816722      53.417824     -448.6571       0.03955       -0.013524585   -0.011069356   -12.441977    
    797000   302.3795       50.961084      50.77479       53.420393     -817.55516      0.0396        -0.0082599578  -0.01188538     24.44783     
    798000   300.83602      50.62835       51.051795      53.422963      226.15387      0.03965       -0.014735199   -0.0064946576  -79.923074    
    799000   301.11349      50.718465      51.043055      53.425532     -97.076234      0.0397        -0.012981499   -0.0066647375  -47.600063    
    800000   301.45337      50.49848       50.880224      53.428101     -1154.7176      0.03975       -0.01726257    -0.009833555    58.164073    
    801000   299.16007      51.009216      50.637583      53.43067       69.805424      0.0398        -0.0073232756  -0.014555528   -64.288229    
    802000   301.23345      50.716685      50.856684      53.43324      -1048.173       0.03985       -0.013016137   -0.010291661    47.509612    
    803000   303.87358      50.784366      50.780408      53.435809     -1801.8862      0.0399        -0.011699014   -0.011776056    122.88093    
    804000   299.29948      50.659541      51.06216       53.438378     -1774.9774      0.03995       -0.014128214   -0.0062929414   120.19006    
    805000   302.4013       51.022473      50.654105      53.440947     -2006.8698      0.04          -0.0070652922  -0.014233999    143.3793     
    806000   300.07312      50.981611      50.780394      53.443517     -954.48104      0.04005       -0.007860494   -0.011776314    38.140418    
    807000   299.76315      50.672038      50.970103      53.446086     -920.53257      0.0401        -0.013885009   -0.0080844502   34.74557     
    808000   303.53991      50.758869      51.018116      53.448655     -2634.9809      0.04015       -0.01219521    -0.0071500738   206.1904     
    809000   299.10021      50.84103       50.900733      53.451225     -780.6759       0.0402        -0.010596299   -0.0094344287   20.759903    
    810000   297.30751      50.725533      50.990066      53.453794     -2437.3432      0.04025       -0.012843963   -0.0076959487   186.42663    
    811000   299.56927      50.703192      50.874635      53.456363     -798.44248      0.0403        -0.01327873    -0.0099423171   22.536561    
    812000   298.53049      50.652748      50.951445      53.458932      217.47269      0.04035       -0.014260407   -0.0084475504  -79.054956    
    813000   298.78679      50.564702      50.862962      53.461502     -846.56846      0.0404        -0.015973835   -0.010169478    27.349159    
    814000   300.39019      50.539791      50.720581      53.464071     -2077.0576      0.04045       -0.016458625   -0.012940326    150.39808    
    815000   301.75162      50.570026      51.16202       53.46664      -1917.5882      0.0405        -0.015870229   -0.0043495911   134.45113    
    816000   296.56179      50.881686      50.642563      53.469209     -1021.0018      0.04055       -0.009805095   -0.014458609    44.79249     
    817000   299.971        50.805565      50.897333      53.471779     -1222.8186      0.0406        -0.01128648    -0.0095006106   64.974173    
    818000   303.38172      50.684618      50.841883      53.474348     -1680.1925      0.04065       -0.013640197   -0.010579694    110.71156    
    819000   299.95047      50.86606       50.770249      53.476917     -1913.1215      0.0407        -0.010109192   -0.011973755    134.00446    
    820000   301.79335      50.822078      50.915017      53.479487     -248.6695       0.04075       -0.010965115   -0.0091564563  -32.440736    
    821000   300.33929      50.484233      51.032195      53.482056     -790.68014      0.0408        -0.017539839   -0.0068760812   21.760327    
    822000   304.6306       50.487388      51.046742      53.484625     -1009.0869      0.04085       -0.017478423   -0.0065929873   43.600999    
    823000   300.85788      50.600729      50.861625      53.487194      83.055707      0.0409        -0.015272729   -0.010195509   -65.613257    
    824000   298.49936      50.499239      50.972323      53.489764      805.93058      0.04095       -0.017247794   -0.0080412327  -137.90074    
    825000   296.44472      50.653877      50.966749      53.492333      446.38428      0.041         -0.014238427   -0.0081497154  -101.94612    
    826000   298.8877       50.503906      51.170567      53.494902     -3218.5267      0.04105       -0.017156981   -0.0041832617   264.54498    
    827000   295.7942       50.751851      51.022963      53.497472     -2133.4851      0.0411        -0.012331784   -0.0070557442   156.04083    
    828000   300.20261      50.847833      50.786231      53.500041     -722.25535      0.04115       -0.010463913   -0.011662721    14.917849    
    829000   298.35856      50.687487      50.860131      53.50261       172.18082      0.0412        -0.013584362   -0.010224588   -74.525769    
    830000   302.02698      50.545977      50.879639      53.505179     -1628.9881      0.04125       -0.016338254   -0.0098449459   105.59113    
    831000   301.98305      50.449657      50.905851      53.507749     -500.32367      0.0413        -0.01821271    -0.0093348261  -7.2753196    
    832000   303.23455      50.386605      50.935802      53.510318     -1928.2189      0.04135       -0.019439747   -0.0087519638   135.5142     
    833000   296.79242      50.58267       50.802938      53.512887     -1565.4369      0.0414        -0.015624178   -0.011337597    99.235999    
    834000   299.86176      50.471949      50.882391      53.515456     -112.14591      0.04145       -0.017778887   -0.0097913786  -46.093096    
    835000   303.5672       50.675377      51.019788      53.518026     -522.62414      0.0415        -0.013820035   -0.0071175446  -5.0452729    
    836000   300.14841      50.603992      50.910655      53.520595     -2102.7867      0.04155       -0.01520924    -0.0092413528   152.97099    
    837000   299.46126      50.44255       50.921241      53.523164     -1264.472       0.0416        -0.018351009   -0.0090353334   69.139516    
    838000   303.1449       50.441599      51.222554      53.525734     -1577.0027      0.04165       -0.018369526   -0.0031715598   100.39258    
    839000   300.47816      50.326603      51.161519      53.528303     -1055.3074      0.0417        -0.020607418   -0.0043593408   48.223055    
    840000   301.97283      50.805469      50.816603      53.530872     -2110.6124      0.04175       -0.011288339   -0.01107167     153.75355    
    841000   298.52492      50.583053      50.995676      53.533441     -1308.3672      0.0418        -0.015616727   -0.0075867834   73.529035    
    842000   297.90543      50.604694      51.088431      53.536011     -3280.5521      0.04185       -0.015195572   -0.0057817013   270.74752    
    843000   304.47369      50.930217      50.807323      53.53858      -1313.1724      0.0419        -0.0088606499  -0.011252253    74.009555    
    844000   301.10826      50.648145      51.185419      53.541149     -1095.9878      0.04195       -0.014349978   -0.0038942273   52.291092    
    845000   292.77275      50.434213      50.969564      53.543718      186.29451      0.042         -0.018513252   -0.0080949271  -75.937138    
    846000   297.25133      50.64273       50.968709      53.546288     -1656.4905      0.04205       -0.014455362   -0.0081115636   108.34136    
    847000   299.00528      50.531486      50.96432       53.548857     -82.638667      0.0421        -0.016620257   -0.0081969845  -49.04382     
    848000   298.99587      50.461282      50.942313      53.551426     -613.46398      0.04215       -0.017986482   -0.0086252476   4.038711     
    849000   297.96636      50.725771      50.876794      53.553996      94.365771      0.0422        -0.012839327   -0.0099003023  -66.744264    
    850000   299.64721      50.810049      50.758491      53.556565     -1647.2012      0.04225       -0.011199214   -0.012202572    107.41244    
    851000   297.30336      50.508946      51.305225      53.559134     -1794.4533      0.0423        -0.017058904   -0.0015627222   122.13765    
    852000   297.48053      50.566435      51.0129        53.561703     -808.29465      0.04235       -0.015940122   -0.0072515869   23.521778    
    853000   303.47495      50.564672      50.898432      53.564273     -1248.6341      0.0424        -0.015974432   -0.0094792166   67.55572     
    854000   300.36568      50.528208      51.105548      53.566842     -752.58941      0.04245       -0.016684036   -0.00544859     17.951254    
    855000   300.9965       50.686532      50.972643      53.569411     -1875.9318      0.0425        -0.013602951   -0.0080350184   130.28549    
    856000   306.35057      50.900203      50.832316      53.571981     -1930.5193      0.04255       -0.0094447551  -0.010765882    135.74425    
    857000   298.15391      50.424776      50.932182      53.57455      -1358.0671      0.0426        -0.018696911   -0.0088224199   78.49902     
    858000   302.99353      50.562187      50.882829      53.577119     -338.3496       0.04265       -0.016022793   -0.0097828619  -23.472727    
    859000   298.57336      50.59546       51.025487      53.579688     -1172.0024      0.0427        -0.01537528    -0.0070066234   59.892555    
    860000   296.9043       50.789425      50.971067      53.582258     -1908.0967      0.04275       -0.011600566   -0.0080656826   133.50198    
    861000   302.10143      50.547096      51.108364      53.584827     -902.33035      0.0428        -0.016316477   -0.0053937896   32.925348    
    862000   296.19994      50.86815       50.654527      53.587396     -228.14774      0.04285       -0.010068518   -0.014225779   -34.492913    
    863000   300.28511      50.897646      50.739151      53.589965     -791.26887      0.0429        -0.0094945125  -0.012578934    21.8192      
    864000   304.92763      50.739349      50.913245      53.592535     -1340.1036      0.04295       -0.012575091   -0.0091909444   76.702672    
    865000   298.33172      50.615158      50.740351      53.595104     -1351.1022      0.043         -0.014991941   -0.01255558     77.802537    
    866000   298.46553      50.640047      50.714422      53.597673     -220.68116      0.04305       -0.014507579   -0.013060189   -35.239571    
    867000   299.95702      50.513508      51.041916      53.600243     -1658.2469      0.0431        -0.016970116   -0.0066869031   108.517      
    868000   299.05254      50.652585      50.868485      53.602812     -698.9962       0.04315       -0.014263579   -0.010062013    12.591933    
    869000   299.90608      50.389203      51.102192      53.605381     -682.82103      0.0432        -0.019389191   -0.0055138875   10.974416    
    870000   303.92691      50.092307      51.297952      53.60795      -919.54968      0.04325       -0.025166993   -0.0017042544   34.647281    
    871000   298.18159      50.572338      50.823918      53.61052       566.75261      0.0433        -0.015825234   -0.01092931    -113.98295    
    872000   300.177        50.317021      51.016771      53.613089     -1447.763       0.04335       -0.020793894   -0.0071762425   87.468611    
    873000   303.83602      50.302345      51.275837      53.615658     -56.198445      0.0434        -0.02107951    -0.0021346298  -51.687842    
    874000   300.13272      50.419146      50.978759      53.618228     -184.5228       0.04345       -0.018806475   -0.0079159844  -38.855407    
    875000   300.83959      50.367793      50.967561      53.620797     -1466.8524      0.0435        -0.019805829   -0.0081339127   89.377551    
    876000   299.03493      50.36585       50.993296      53.623366     -459.99427      0.04355       -0.019843658   -0.0076330951  -11.30826     
    877000   303.01507      50.306158      51.086738      53.625935     -725.28478      0.0436        -0.021005301   -0.0058146506   15.220791    
    878000   303.27865      50.620517      50.813802      53.628505     -311.79095      0.04365       -0.014887651   -0.011126168   -26.128592    
    879000   300.39965      50.448497      51.146216      53.631074     -1346.1602      0.0437        -0.018235282   -0.0046571515   77.308336    
    880000   300.42284      50.480946      51.051266      53.633643     -526.33475      0.04375       -0.017603798   -0.006504956   -4.6742116    
    881000   298.47648      50.698101      51.050616      53.636212      279.77372      0.0438        -0.013377811   -0.0065175972  -85.285059    
    882000   302.38304      50.552635      51.008623      53.638782     -935.42211      0.04385       -0.016208685   -0.0073348196   36.234524    
    883000   296.31656      50.664466      50.790358      53.641351      673.20082      0.0439        -0.014032365   -0.011582408   -124.62777    
    884000   297.69107      50.353064      51.096569      53.64392      -1267.5289      0.04395       -0.020092482   -0.0056233242   69.445204    
    885000   298.33558      50.608244      50.788801      53.64649      -1143.7533      0.044         -0.01512648    -0.01161271     57.067641    
    886000   303.95902      50.550773      50.952348      53.649059     -339.3873       0.04405       -0.016244909   -0.0084299783  -23.368957    
    887000   301.30076      50.626882      51.124824      53.651628     -1640.5002      0.0441        -0.014763766   -0.005073461    106.74234    
    888000   298.75643      50.511613      50.892564      53.654197      245.05787      0.04415       -0.017007      -0.0095934095  -81.813474    
    889000   300.9516       50.654456      50.85924       53.656767     -2902.7865      0.0442        -0.014227165   -0.010241918    232.97096    
    890000   299.24622      50.403956      51.13829       53.659336     -806.59442      0.04425       -0.019102086   -0.0048113944   23.351756    
    891000   299.98077      50.61098       50.839596      53.661905     -2754.0852      0.0443        -0.015073232   -0.010624211    218.10083    
    892000   298.76192      50.385944      50.875958      53.664474     -62.26295       0.04435       -0.019452596   -0.0099165786  -51.081392    
    893000   301.01157      50.761251      50.582409      53.667044     -1007.4979      0.0444        -0.012148847   -0.015629253    43.442107    
    894000   300.52111      50.552774      50.921287      53.669613     -44.839565      0.04445       -0.016205979   -0.0090344368  -52.82373     
    895000   297.64089      50.75452       50.535621      53.672182     -1196.5836      0.0445        -0.012279842   -0.016539783    62.350673    
    896000   301.8357       50.782577      50.777765      53.674752     -1834.5214      0.04455       -0.01173383    -0.01182749     126.14445    
    897000   295.96246      50.550633      50.897221      53.677321     -587.94632      0.0446        -0.016247634   -0.0095027781   1.4869448    
    898000   299.98197      50.67355       50.848192      53.67989      -1722.525       0.04465       -0.013855581   -0.010456927    114.94481    
    899000   297.05762      50.372516      51.128534      53.682459     -892.78061      0.0447        -0.019713926   -0.0050012523   31.970374    
    900000   301.56579      50.874348      50.593065      53.685029     -188.46737      0.04475       -0.0099478963  -0.015421886   -38.46095     
    901000   296.55191      50.633803      50.618268      53.687598     -1069.2002      0.0448        -0.01462908    -0.014931415    49.612335    
    902000   303.54752      50.723094      50.849391      53.690167     -1518.2487      0.04485       -0.012891423   -0.010433588    94.517179    
    903000   299.73539      50.690875      50.702201      53.692737     -364.42786      0.0449        -0.013518428   -0.013298007   -20.8649      
    904000   297.55321      50.565111      50.716671      53.695306     -1397.1367      0.04495       -0.015965881   -0.013016412    82.405981    
    905000   293.07036      50.514355      50.858315      53.697875     -2037.5092      0.045         -0.016953638   -0.010259926    146.44323    
    906000   297.65126      50.639553      50.62957       53.700444     -1335.4295      0.04505       -0.014517198   -0.014711466    76.235265    
    907000   298.43549      50.729843      50.766321      53.703014     -1516.9953      0.0451        -0.012760074   -0.012050181    94.391848    
    908000   301.649        50.754138      50.820661      53.705583     -1003.0305      0.04515       -0.012287274   -0.010992688    42.995361    
    909000   302.65708      50.490957      50.727108      53.708152     -1201.1789      0.0452        -0.017408978   -0.012813305    62.810202    
    910000   299.41442      50.585051      51.056979      53.710721     -527.263        0.04525       -0.015577847   -0.0063937658  -4.5813869    
    911000   295.11974      50.655933      50.752558      53.713291     -2477.9632      0.0453        -0.014198423   -0.01231802     190.48864    
    912000   300.29143      50.743827      50.598159      53.71586      -1029.741       0.04535       -0.012487938   -0.015322747    45.666414    
    913000   301.54732      50.564206      50.853931      53.718429     -1348.3963      0.0454        -0.015983492   -0.010345242    77.531941    
    914000   299.51727      50.599436      50.896006      53.720999     -491.59221      0.04545       -0.015297889   -0.0095264247  -8.1484657    
    915000   300.81384      50.536586      50.712943      53.723568     -2289.6671      0.0455        -0.016521006   -0.013088962    171.65902    
    916000   298.00512      50.6485        50.864184      53.726137     -926.03512      0.04555       -0.014343075   -0.010145698    35.295825    
    917000   300.27685      50.71768       50.865243      53.728706     -759.07137      0.0456        -0.012996773   -0.010125087    18.59945     
    918000   300.43162      50.488996      51.090601      53.731276     -445.17097      0.04565       -0.017447147   -0.0057394559  -12.79059     
    919000   297.91422      50.686776      50.654523      53.733845     -1417.6488      0.0457        -0.013598189   -0.014225865    84.45719     
    920000   299.60696      50.461962      50.872439      53.736414     -1585.4871      0.04575       -0.017973237   -0.0099850481   101.24102    
    921000   296.6133       50.715163      50.570754      53.738983     -1334.939       0.0458        -0.013045764   -0.015856064    76.186214    
    922000   296.82626      50.604034      50.646547      53.741553     -1727.5312      0.04585       -0.015208416   -0.014381083    115.44544    
    923000   296.07126      50.730054      50.648875      53.744122     -648.83145      0.0459        -0.012755969   -0.014335777    7.575458     
    924000   304.40682      50.565828      50.596828      53.746691     -20.670172      0.04595       -0.015951922   -0.015348649   -55.24067     
    925000   300.2526       50.595752      50.836545      53.749261     -752.46471      0.046         -0.01536959    -0.010683572    17.938784    
    926000   301.73218      50.543931      50.831216      53.75183      -739.00057      0.04605       -0.016378066   -0.010787293    16.59237     
    927000   299.03353      51.0187        50.506969      53.754399     -1692.7466      0.0461        -0.0071387165  -0.017097368    111.96697    
    928000   299.67972      50.69363       50.499567      53.756968      555.36727      0.04615       -0.013464813   -0.017241416   -112.84441    
    929000   298.63382      50.539975      50.858366      53.759538     -698.30924      0.0462        -0.016455051   -0.010258936    12.523237    
    930000   297.26766      50.620471      50.889476      53.762107     -31.883819      0.04625       -0.014888529   -0.0096535013  -54.119305    
    931000   299.19001      50.529899      50.674127      53.764676      106.36984      0.0463        -0.016651135   -0.013844352   -67.944671    
    932000   298.45412      50.547373      50.83173       53.767246     -1668.8617      0.04635       -0.016311088   -0.010777284    109.57848    
    933000   299.18383      50.567261      50.676799      53.769815     -624.70161      0.0464        -0.015924041   -0.013792354    5.1624745    
    934000   299.24695      50.552124      50.78775       53.772384     -642.25877      0.04645       -0.016218619   -0.011633176    6.9181905    
    935000   303.76983      50.236441      50.850346      53.774953     -639.22543      0.0465        -0.022362049   -0.010414995    6.6148565    
    936000   301.17357      50.465644      50.963994      53.777523     -1157.8872      0.04655       -0.017901581   -0.0082033326   58.481036    
    937000   298.0623       50.498392      51.043304      53.780092     -452.90377      0.0466        -0.017264284   -0.0066599042  -12.017309    
    938000   302.37016      50.722111      50.678864      53.782661     -1043.8537      0.04665       -0.012910555   -0.013752169    47.077687    
    939000   301.41098      50.414448      50.752153      53.78523      -1376.0052      0.0467        -0.0188979     -0.012325917    80.292835    
    940000   299.97803      50.547847      50.725509      53.7878       -261.79823      0.04675       -0.016301861   -0.012844426   -31.127864    
    941000   302.94723      50.641455      50.815589      53.790369     -596.49005      0.0468        -0.014480184   -0.011091401    2.3413178    
    942000   301.72619      50.370137      50.76347       53.792938     -865.13517      0.04685       -0.019760225   -0.012105673    29.20583     
    943000   300.50996      50.545897      50.924751      53.795508     -795.36987      0.0469        -0.016339806   -0.0089670268   22.2293      
    944000   300.82846      50.652914      50.580788      53.798077     -1723.5307      0.04695       -0.014257165   -0.015660802    115.04538    
    945000   297.06339      50.658743      50.624697      53.800646     -872.80177      0.047         -0.014143729   -0.014806295    29.97249     
    946000   298.9905       50.44762       50.673071      53.803215     -2786.787       0.04705       -0.018252354   -0.013864903    221.37101    
    947000   297.93373      50.437136      50.77107       53.805785     -1914.324       0.0471        -0.018456374   -0.011957776    134.12471    
    948000   298.67411      50.24164       51.152775      53.808354     -802.11773      0.04715       -0.022260863   -0.0045295028   22.904086    
    949000   300.75146      50.652552      50.641642      53.810923     -593.96266      0.0472        -0.014264221   -0.014476527    2.0885789    
    950000   304.6769       50.675475      50.78954       53.813493      505.40609      0.04725       -0.013818124   -0.011598322   -107.8483     
    951000   301.67172      50.460794      50.867508      53.816062      442.06974      0.0473        -0.017995965   -0.010081022   -101.51466    
    952000   298.33716      50.720797      50.847753      53.818631     -1168.8118      0.04735       -0.012936113   -0.010465467    59.573492    
    953000   301.0437       50.514896      50.784101      53.8212       -988.18311      0.0474        -0.016943109   -0.011704169    41.510625    
    954000   299.19582      50.557399      50.757129      53.82377      -1590.333       0.04745       -0.016115957   -0.012229074    101.72561    
    955000   299.2923       50.374521      50.932755      53.826339      72.304602      0.0475        -0.019674899   -0.0088112621  -64.538147    
    956000   303.45073      50.27156       51.189327      53.828908     -264.99585      0.04755       -0.021678603   -0.003818185   -30.808101    
    957000   296.06423      50.710409      50.645181      53.831477     -332.3205       0.0476        -0.013138281   -0.014407665   -24.075637    
    958000   300.11782      50.608116      50.598763      53.834047     -1602.9032      0.04765       -0.015128976   -0.01531099     102.98263    
    959000   298.08443      50.443333      50.834463      53.836616     -1251.1693      0.0477        -0.018335774   -0.010724102    67.809244    
    960000   301.52684      50.690157      50.727972      53.839185     -2461.4236      0.04775       -0.013532394   -0.012796487    188.83467    
    961000   299.80118      50.811862      50.587964      53.841755     -220.94833      0.0478        -0.011163931   -0.015521156   -35.212854    
    962000   298.81583      50.554326      50.842637      53.844324     -738.17931      0.04785       -0.01617576    -0.010565019    16.510244    
    963000   299.45975      50.4618        50.791303      53.846893     -529.66889      0.0479        -0.017976397   -0.011564029   -4.3407976    
    964000   300.72972      50.250137      50.935275      53.849462      127.47577      0.04795       -0.022095508   -0.0087622129  -70.055263    
    965000   300.17597      50.443215      50.84001       53.852032     -1527.6254      0.048         -0.018338074   -0.010616152    95.454854    
    966000   299.6852       50.307832      50.854382      53.854601     -771.87162      0.04805       -0.02097273    -0.010336456    19.879475    
    967000   296.90791      50.618543      50.805288      53.85717      -212.40937      0.0481        -0.014926049   -0.011291873   -36.06675     
    968000   297.5652       50.601704      50.782536      53.859739     -2173.2821      0.04815       -0.015253768   -0.011734628    160.02052    
    969000   301.99652      50.577577      50.517497      53.862309     -664.82311      0.0482        -0.015723293   -0.016892493    9.1746247    
    970000   299.71808      50.700025      50.668784      53.864878     -1120.2571      0.04825       -0.013340368   -0.013948332    54.718025    
    971000   301.06852      50.710354      50.524739      53.867447     -1045.0123      0.0483        -0.013139348   -0.016751555    47.193539    
    972000   300.57516      50.560513      50.797972      53.870017     -328.55697      0.04835       -0.016055364   -0.011434248   -24.45199     
    973000   299.117        50.56194       50.543959      53.872586     -267.18975      0.0484        -0.016027592   -0.016377526   -30.588712    
    974000   299.19356      50.480354      50.573902      53.875155     -858.8129       0.04845       -0.017615327   -0.015794801    28.573603    
    975000   303.20064      50.418953      50.692544      53.877724     -1896.0117      0.0485        -0.018810226   -0.013485938    132.29348    
    976000   299.25175      50.629659      50.75582       53.880294     -1659.9852      0.04855       -0.014709727   -0.01225454     108.69084    
    977000   295.84921      50.688828      50.473374      53.882863     -1141.6839      0.0486        -0.013558267   -0.017751162    56.860701    
    978000   297.82057      50.587507      50.55919       53.885432     -17.74111       0.04865       -0.01553004    -0.016081116   -55.533576    
    979000   300.50967      50.045869      50.782642      53.888002      14.603766      0.0487        -0.026070719   -0.011732576   -58.768063    
    980000   298.00948      50.20924       50.83612       53.890571      527.05851      0.04875       -0.022891391   -0.010691845   -110.01354    
    981000   302.19404      50.628275      50.65514       53.89314      -245.04931      0.0488        -0.014736659   -0.014213864   -32.802756    
    982000   303.41243      50.422833      50.702439      53.895709     -1731.8223      0.04885       -0.01873471    -0.01329338     115.87455    
    983000   295.60938      50.380112      50.926114      53.898279      248.33045      0.0489        -0.019566099   -0.0089405054  -82.140732    
    984000   301.86992      50.363373      50.726455      53.900848     -304.62175      0.04895       -0.019891859   -0.012826009   -26.845511    
    985000   300.07835      50.411971      50.597997      53.903417     -1442.6511      0.049         -0.018946102   -0.015325898    86.957426    
    986000   299.40826      50.651798      50.767871      53.905986     -1473.5965      0.04905       -0.014278884   -0.012020035    90.051962    
    987000   297.15779      50.430708      50.634408      53.908556     -761.55957      0.0491        -0.018581471   -0.014617314    18.84827     
    988000   299.31569      50.647855      50.499639      53.911125     -1005.4553      0.04915       -0.014355632   -0.017240019    43.23784     
    989000   301.87338      50.58015       50.634404      53.913694     -1449.9484      0.0492        -0.015673215   -0.0146174      87.687156    
    990000   301.21655      50.346089      50.741382      53.916264     -1523.0144      0.04925       -0.020228205   -0.012535523    94.993758    
    991000   298.85119      50.361411      50.660407      53.918833     -858.91458      0.0493        -0.01993003    -0.014111359    28.583771    
    992000   299.60247      50.38458       50.837661      53.921402     -1358.4781      0.04935       -0.019479146   -0.010661857    78.540127    
    993000   304.13478      50.19158       50.867231      53.923971     -2800.2102      0.0494        -0.023235075   -0.010086406    222.71333    
    994000   303.01128      50.525209      50.895358      53.926541      533.08077      0.04945       -0.016742406   -0.0095390397  -110.61576    
    995000   299.39431      50.380373      50.547779      53.92911      -806.36179      0.0495        -0.019561013   -0.016303175    23.328492    
    996000   300.06656      50.48224       50.655686      53.931679     -64.666877      0.04955       -0.01757861    -0.014203234   -50.840999    
    997000   300.98647      50.418918      50.716474      53.934248     -927.50221      0.0496        -0.018810905   -0.013020247    35.442534    
    998000   300.30286      50.399882      50.696672      53.936818     -1337.7607      0.04965       -0.019181358   -0.013405603    76.468388    
    999000   296.89304      50.526806      50.574175      53.939387     -877.45606      0.0497        -0.016711328   -0.015789486    30.437919    
   1000000   293.08071      50.237027      51.006648      53.941956     -1268.4249      0.04975       -0.022350647   -0.0073732566   69.534799    
   1001000   301.29586      50.197527      51.104421      53.944526     -884.71823      0.0498        -0.023119332   -0.0054705196   31.164136    
   1002000   300.46183      50.272413      51.013087      53.947095     -516.90168      0.04985       -0.02166201    -0.0072479343  -5.617519     
   1003000   298.93587      50.49773       50.73383       53.949664      1301.7288      0.0499        -0.017277174   -0.012682498   -187.48057    
   1004000   297.64024      50.331942      50.97578       53.952233     -87.392204      0.04995       -0.02050352    -0.00797397    -48.568466    
   1005000   301.65607      50.253113      50.637738      53.954803     -148.53523      0.05          -0.0220376     -0.014552511   -42.454163    
Loop time of 11363.4 on 6 procs for 1000000 steps with 11606 atoms

Performance: 7.603 ns/day, 3.157 hours/ns, 88.002 timesteps/s, 1.021 Matom-step/s
90.2% CPU use with 6 MPI tasks x 1 OpenMP threads

MPI task timing breakdown:
Section |  min time  |  avg time  |  max time  |%varavg| %total
---------------------------------------------------------------
Pair    | 6930.9     | 7162.3     | 7358.1     | 150.8 | 63.03
Bond    | 499.03     | 507.52     | 522.02     |  32.2 |  4.47
Kspace  | 2168.5     | 2360.7     | 2601.1     | 264.6 | 20.77
Neigh   | 670.34     | 670.44     | 670.5      |   0.2 |  5.90
Comm    | 177.57     | 179.02     | 179.76     |   5.5 |  1.58
Output  | 0.12948    | 0.13453    | 0.1418     |   1.1 |  0.00
Modify  | 394.25     | 410.71     | 435.11     |  83.8 |  3.61
Other   |            | 72.67      |            |       |  0.64

Nlocal:        1934.33 ave        1979 max        1874 min
Histogram: 1 0 0 0 1 1 0 2 0 1
Nghost:        11078.8 ave       11103 max       11059 min
Histogram: 2 0 0 0 1 1 1 0 0 1
Neighs:         591203 ave      618785 max      573252 min
Histogram: 1 2 0 0 1 0 1 0 0 1

Total # of neighbors = 3547216
Ave neighs/atom = 305.63639
Ave special neighs/atom = 10.910736
Neighbor list builds = 32196
Dangerous builds = 0

print "===== SIMULATION COMPLETE ====="
===== SIMULATION COMPLETE =====
print "===== DEFORMATION COMPLETE ====="
===== DEFORMATION COMPLETE =====
print "Final strain_z = ${strain_z}"
Final strain_z = 0.0499999999999993
print "Final stress_z = ${stress_z} MPa"
Final stress_z = -42.4541633065264 MPa

write_data mech_ultem.data
System init for write_data ...
PPPM initialization ...
  using 12-bit tables for long-range coulomb (src/kspace.cpp:342)
  G vector (1/distance) = 0.24208324
  grid = 20 20 24
  stencil order = 5
  estimated absolute RMS force accuracy = 0.027840878
  estimated relative force accuracy = 8.3841978e-05
  using double precision FFTW3
  3d grid and FFT values/proc = 4875 1600
Generated 45 of 45 mixed pair_coeff terms from arithmetic mixing rule
Total wall time: 3:10:15
