LAMMPS (29 Aug 2024)
OMP_NUM_THREADS environment is not set. Defaulting to 1 thread. (src/comm.cpp:98)
  using 1 OpenMP thread(s) per MPI task
units           real
atom_style      full
boundary        p p p

variable        dt equal 1.0
timestep        ${dt}
timestep        1

pair_style      lj/cut/coul/long 10
bond_style      harmonic
angle_style     harmonic
dihedral_style  fourier
improper_style  cvff
special_bonds   amber
pair_modify     tail yes mix arithmetic
kspace_style    pppm 1.0e-4

# 1. Загрузка структуры
read_data       relaxed_pekk.data
Reading data file ...
  orthogonal box = (-24.895961 -24.895961 -24.895961) to (24.895961 24.895961 24.895961)
  1 by 2 by 2 MPI processor grid
  reading atoms ...
  10296 atoms
  reading velocities ...
  10296 velocities
  scanning bonds ...
  2 = max bonds/atom
  scanning angles ...
  3 = max angles/atom
  scanning dihedrals ...
  8 = max dihedrals/atom
  scanning impropers ...
  1 = max impropers/atom
  orthogonal box = (-24.895961 -24.895961 -24.895961) to (24.895961 24.895961 24.895961)
  1 by 2 by 2 MPI processor grid
  reading bonds ...
  11175 bonds
  reading angles ...
  17934 angles
  reading dihedrals ...
  27042 dihedrals
  reading impropers ...
  3528 impropers
Finding 1-2 1-3 1-4 neighbors ...
  special bond factors lj:    0        0        0.5     
  special bond factors coul:  0        0        0.8333333333333334
     3 = max # of 1-2 neighbors
     6 = max # of 1-3 neighbors
    12 = max # of 1-4 neighbors
    15 = max # of special neighbors
  special bonds CPU = 0.002 seconds
  read_data CPU = 0.231 seconds

# 2. Создаем папку checkpoints
shell mkdir checkpoints

dump 2 all custom 50000 ./checkpoints/smth.*.pos id type x y z

# Параметры
variable        Nexchange equal 20
variable Nbin equal 20

# ширина слоя вручную
compute layers all chunk/atom bin/1d x lower 2.57 units box

fix temp_profile all ave/chunk 100 1000 100000 layers temp file temp.profile

# 3. Сначала термостатирование
# Используем NVT с релаксацией
fix             1 all nvt temp 300.0 300.0 100.0
thermo          1000
thermo_style    custom step temp vol

run             10000

CITE-CITE-CITE-CITE-CITE-CITE-CITE-CITE-CITE-CITE-CITE-CITE-CITE

Your simulation uses code contributions which should be cited:

- Type Label Framework: https://doi.org/10.1021/acs.jpcb.3c08419

@Article{Gissinger24,
 author = {Jacob R. Gissinger, Ilia Nikiforov, Yaser Afshar, Brendon Waters, Moon-ki Choi, Daniel S. Karls, Alexander Stukowski, Wonpil Im, Hendrik Heinz, Axel Kohlmeyer, and Ellad B. Tadmor},
 title = {Type Label Framework for Bonded Force Fields in LAMMPS},
 journal = {J. Phys. Chem. B},
 year =    2024,
 volume =  128,
 number =  13,
 pages =   {3282–-3297}
}

CITE-CITE-CITE-CITE-CITE-CITE-CITE-CITE-CITE-CITE-CITE-CITE-CITE

PPPM initialization ...
  using 12-bit tables for long-range coulomb (src/kspace.cpp:342)
  G vector (1/distance) = 0.23201084
  grid = 18 18 18
  stencil order = 5
  estimated absolute RMS force accuracy = 0.027411176
  estimated relative force accuracy = 8.2547942e-05
  using double precision FFTW3
  3d grid and FFT values/proc = 4508 1620
Generated 21 of 21 mixed pair_coeff terms from arithmetic mixing rule
Neighbor list info ...
  update: every = 1 steps, delay = 0 steps, check = yes
  max neighbors/atom: 2000, page size: 100000
  master list distance cutoff = 12
  ghost atom cutoff = 12
  binsize = 6, bins = 9 9 9
  1 neighbor lists, perpetual/occasional/extra = 1 0 0
  (1) pair lj/cut/coul/long, perpetual
      attributes: half, newton on
      pair build: half/bin/newton
      stencil: half/bin/3d
      bin: standard
Per MPI rank memory allocation (min/avg/max) = 15.56 | 15.67 | 15.96 Mbytes
   Step          Temp          Volume    
         0   298.01067      123445.91    
      1000   303.06528      123445.91    
      2000   299.56267      123445.91    
      3000   301.8165       123445.91    
      4000   296.26996      123445.91    
      5000   302.18402      123445.91    
      6000   302.7647       123445.91    
      7000   297.98243      123445.91    
      8000   298.05294      123445.91    
      9000   305.70683      123445.91    
     10000   300.22889      123445.91    
Loop time of 128.718 on 4 procs for 10000 steps with 10296 atoms

Performance: 6.712 ns/day, 3.575 hours/ns, 77.689 timesteps/s, 799.891 katom-step/s
90.1% CPU use with 4 MPI tasks x 1 OpenMP threads

MPI task timing breakdown:
Section |  min time  |  avg time  |  max time  |%varavg| %total
---------------------------------------------------------------
Pair    | 89.408     | 92.606     | 96.16      |  24.9 | 71.95
Bond    | 4.8492     | 4.9493     | 5.0553     |   3.8 |  3.85
Kspace  | 19.945     | 23.504     | 26.694     |  49.4 | 18.26
Neigh   | 3.9094     | 3.9098     | 3.9103     |   0.0 |  3.04
Comm    | 2.7659     | 2.8582     | 2.9566     |   4.5 |  2.22
Output  | 0.00039749 | 0.00051197 | 0.00083206 |   0.0 |  0.00
Modify  | 0.53574    | 0.54767    | 0.55914    |   1.3 |  0.43
Other   |            | 0.342      |            |       |  0.27

Nlocal:           2574 ave        2654 max        2487 min
Histogram: 1 0 0 1 0 0 1 0 0 1
Nghost:        12055.8 ave       12113 max       11981 min
Histogram: 1 0 1 0 0 0 0 0 0 2
Neighs:         776784 ave      815585 max      739409 min
Histogram: 1 0 0 0 1 1 0 0 0 1

Total # of neighbors = 3107137
Ave neighs/atom = 301.78098
Ave special neighs/atom = 10.393357
Neighbor list builds = 158
Dangerous builds = 0
unfix           1

# 4. Переключаемся на NVE
fix             2 all nve

# 5. RNEMD метод
# Обмен энергией каждые 20 шагов между 1 и 20 слоями
fix             3 all thermal/conductivity ${Nexchange} x ${Nbin}
fix             3 all thermal/conductivity 20 x ${Nbin}
fix             3 all thermal/conductivity 20 x 20

# 6. Мониторинг
# Выводим температуру и переданную энергию
thermo_style    custom step temp epair etotal f_3 lx
thermo          1000

# 7. ЗАПУСК - используем небольшое число для отладки
run             10000
PPPM initialization ...
  using 12-bit tables for long-range coulomb (src/kspace.cpp:342)
  G vector (1/distance) = 0.23201084
  grid = 18 18 18
  stencil order = 5
  estimated absolute RMS force accuracy = 0.027411176
  estimated relative force accuracy = 8.2547942e-05
  using double precision FFTW3
  3d grid and FFT values/proc = 4508 1620
Generated 21 of 21 mixed pair_coeff terms from arithmetic mixing rule
Per MPI rank memory allocation (min/avg/max) = 16.91 | 17.11 | 17.31 Mbytes
   Step          Temp          E_pair         TotEng          f_3             Lx      
     10000   300.22889     -474.91215      22047.39       0              49.791923    
     11000   298.65357     -425.42078      22047.162      191.75024      49.791923    
     12000   299.14603     -513.92317      22045.988      362.05608      49.791923    
     13000   298.76136     -453.12064      22047.832      529.4772       49.791923    
     14000   299.47391     -472.93553      22048.017      693.66839      49.791923    
     15000   297.16649     -426.53994      22048.336      849.31808      49.791923    
     16000   297.21553     -419.62517      22047.96       1007.7966      49.791923    
     17000   297.46693     -484.38217      22047.427      1154.1204      49.791923    
     18000   299.3337      -413.72791      22046.629      1291.3992      49.791923    
     19000   299.56209     -451.17908      22047.75       1422.8839      49.791923    
     20000   299.18818     -457.7981       22048.12       1563.6348      49.791923    
Loop time of 132.88 on 4 procs for 10000 steps with 10296 atoms

Performance: 6.502 ns/day, 3.691 hours/ns, 75.256 timesteps/s, 774.834 katom-step/s
90.0% CPU use with 4 MPI tasks x 1 OpenMP threads

MPI task timing breakdown:
Section |  min time  |  avg time  |  max time  |%varavg| %total
---------------------------------------------------------------
Pair    | 91.75      | 95.184     | 98.934     |  26.2 | 71.63
Bond    | 4.9675     | 5.0904     | 5.2299     |   4.3 |  3.83
Kspace  | 21.125     | 24.908     | 28.35      |  51.5 | 18.74
Neigh   | 4.1543     | 4.1544     | 4.1546     |   0.0 |  3.13
Comm    | 2.7877     | 2.8847     | 2.9899     |   4.5 |  2.17
Output  | 0.00028404 | 0.00038264 | 0.00067528 |   0.0 |  0.00
Modify  | 0.25764    | 0.26431    | 0.26907    |   0.8 |  0.20
Other   |            | 0.3937     |            |       |  0.30

Nlocal:           2574 ave        2674 max        2492 min
Histogram: 1 0 1 0 0 1 0 0 0 1
Nghost:        12046.5 ave       12127 max       11935 min
Histogram: 1 0 0 0 0 1 0 1 0 1
Neighs:         776635 ave      822039 max      744666 min
Histogram: 1 0 1 1 0 0 0 0 0 1

Total # of neighbors = 3106539
Ave neighs/atom = 301.7229
Ave special neighs/atom = 10.393357
Neighbor list builds = 163
Dangerous builds = 0

print "Checkpoint reached"
Checkpoint reached

# 8. Основной запуск (если отладка успешна)
run            1000000
PPPM initialization ...
  using 12-bit tables for long-range coulomb (src/kspace.cpp:342)
  G vector (1/distance) = 0.23201084
  grid = 18 18 18
  stencil order = 5
  estimated absolute RMS force accuracy = 0.027411176
  estimated relative force accuracy = 8.2547942e-05
  using double precision FFTW3
  3d grid and FFT values/proc = 4508 1620
Generated 21 of 21 mixed pair_coeff terms from arithmetic mixing rule
Per MPI rank memory allocation (min/avg/max) = 16.91 | 17.21 | 17.31 Mbytes
   Step          Temp          E_pair         TotEng          f_3             Lx      
     20000   299.18818     -457.7981       22048.12       1563.6348      49.791923    
     21000   300.50696     -418.30773      22046.222      1699.1377      49.791923    
     22000   297.68018     -458.10457      22048.806      1832.0373      49.791923    
     23000   300.32807     -443.59028      22047.114      1967.4942      49.791923    
     24000   298.93367     -474.69865      22047.824      2104.7356      49.791923    
     25000   301.15485     -507.99766      22049.021      2243.0246      49.791923    
     26000   302.70197     -497.26929      22047.293      2364.9434      49.791923    
     27000   299.34443     -492.74441      22049.477      2492.3747      49.791923    
     28000   300.84147     -498.71364      22048.801      2622.3911      49.791923    
     29000   300.85446     -422.54015      22050.157      2748.5988      49.791923    
     30000   297.14288     -472.7193       22050.195      2882.7435      49.791923    
     31000   301.60457     -499.1996       22049.653      3018.3579      49.791923    
     32000   300.42761     -475.77702      22048.51       3146.1257      49.791923    
     33000   299.93341     -523.4604       22048.821      3270.0811      49.791923    
     34000   299.27743     -485.81575      22050.823      3403.4013      49.791923    
     35000   299.63038     -461.11011      22051.744      3528.9664      49.791923    
     36000   302.02734     -374.4609       22051.468      3645.5792      49.791923    
     37000   303.11859     -430.46829      22050.216      3775.5363      49.791923    
     38000   299.75581     -429.74824      22052.343      3898.0255      49.791923    
     39000   297.32642     -416.84418      22055.746      4015.0655      49.791923    
     40000   296.3217      -459.77313      22054.895      4135.6873      49.791923    
     41000   300.73784     -514.22357      22053.092      4256.5287      49.791923    
     42000   301.12515     -495.71969      22052.969      4375.3221      49.791923    
     43000   298.33945     -492.51793      22054.253      4502.5542      49.791923    
     44000   299.45737     -547.79553      22054.609      4629.8861      49.791923    
     45000   296.47311     -443.66364      22056.188      4750.7797      49.791923    
     46000   298.5598      -516.68432      22053.246      4878.8108      49.791923    
     47000   298.55208     -424.2084       22055.281      5000.3402      49.791923    
     48000   299.79562     -483.15238      22054.981      5126.3091      49.791923    
     49000   301.41768     -436.7871       22056.627      5254.5993      49.791923    
     50000   298.75008     -403.44683      22057.873      5384.7043      49.791923    
     51000   301.56304     -438.36206      22056.932      5500.9941      49.791923    
     52000   299.27155     -449.28187      22057.274      5626.898       49.791923    
     53000   296.67563     -510.58447      22058.361      5738.2583      49.791923    
     54000   300.22472     -512.34316      22056.731      5870.9755      49.791923    
     55000   300.3039      -457.09073      22058.272      5981.827       49.791923    
     56000   298.06598     -428.57151      22058.169      6094.5567      49.791923    
     57000   300.01351     -500.662        22059.061      6208.3572      49.791923    
     58000   299.54897     -473.97936      22060.361      6328.4326      49.791923    
     59000   296.72403     -431.7366       22059.953      6448.8752      49.791923    
     60000   297.16139     -452.35829      22061.191      6572.2435      49.791923    
     61000   297.38036     -485.1368       22062.696      6696.2791      49.791923    
     62000   296.06157     -533.72469      22062.723      6810.7154      49.791923    
     63000   299.48899     -485.53661      22061.835      6926.4205      49.791923    
     64000   296.71801     -448.06636      22062.405      7049.3843      49.791923    
     65000   298.08402     -513.69951      22061.381      7167.1864      49.791923    
     66000   299.49228     -489.88099      22062.802      7291.1302      49.791923    
     67000   298.96634     -434.91764      22064.649      7413.2278      49.791923    
     68000   299.37679     -469.80062      22064.238      7536.4465      49.791923    
     69000   295.81779     -501.95945      22064.872      7658.7898      49.791923    
     70000   297.72726     -524.55539      22063.909      7782.9631      49.791923    
     71000   300.36575     -485.12666      22063.759      7906.1425      49.791923    
     72000   299.42652     -457.30483      22066.175      8021.7177      49.791923    
     73000   301.82873     -498.2926       22064.906      8147.6389      49.791923    
     74000   301.5612      -462.43314      22064.076      8268.4907      49.791923    
     75000   301.54175     -414.32197      22064.755      8388.4169      49.791923    
     76000   300.23345     -474.34507      22065.033      8502.5264      49.791923    
     77000   301.4819      -434.6033       22067.034      8628.4222      49.791923    
     78000   298.93199     -497.11141      22067.886      8754.3779      49.791923    
     79000   302.17803     -481.83081      22066.009      8875.8569      49.791923    
     80000   299.22925     -481.6802       22067.587      8991.0006      49.791923    
     81000   300.15767     -468.15276      22067.31       9106.087       49.791923    
     82000   297.58042     -471.03373      22068.699      9226.5974      49.791923    
     83000   300.38445     -472.52951      22068.715      9336.8891      49.791923    
     84000   299.96128     -512.48453      22067.219      9457.3273      49.791923    
     85000   300.1557      -505.63354      22070.584      9578.8391      49.791923    
     86000   301.5364      -488.17004      22069.131      9699.2541      49.791923    
     87000   300.1963      -438.13219      22069.125      9828.673       49.791923    
     88000   299.14306     -465.24477      22069.517      9952.9456      49.791923    
     89000   299.67282     -443.32981      22068.737      10075.727      49.791923    
     90000   299.94071     -437.0491       22071.205      10194.994      49.791923    
     91000   300.00169     -444.83248      22069.857      10313.925      49.791923    
     92000   300.51111     -524.22263      22070.065      10432.504      49.791923    
     93000   295.0095      -419.45204      22072.848      10554.3        49.791923    
     94000   300.71281     -470.84202      22072.558      10681.667      49.791923    
     95000   302.41207     -426.90847      22071.49       10797.492      49.791923    
     96000   299.83913     -465.98496      22072.007      10912.556      49.791923    
     97000   301.16372     -506.67521      22071.944      11031.494      49.791923    
     98000   299.88332     -423.85529      22073.109      11156.488      49.791923    
     99000   299.58723     -496.99275      22073.909      11279.588      49.791923    
    100000   302.93008     -476.15911      22072.33       11397.459      49.791923    
    101000   297.60959     -515.07091      22074.655      11531.036      49.791923    
    102000   298.2593      -468.36447      22073.62       11652.923      49.791923    
    103000   297.29656     -493.30816      22075.306      11773.408      49.791923    
    104000   298.26428     -493.04031      22073.774      11893.522      49.791923    
    105000   299.5334      -460.96346      22076.261      12009.815      49.791923    
    106000   298.95475     -499.63382      22075.604      12126.802      49.791923    
    107000   296.99546     -510.96124      22076.208      12252.596      49.791923    
    108000   300.30026     -509.06321      22076.271      12380.961      49.791923    
    109000   301.53475     -568.75927      22076.486      12500.915      49.791923    
    110000   297.86356     -492.37617      22076.399      12629.571      49.791923    
    111000   299.87028     -414.7514       22076          12748.623      49.791923    
    112000   300.59397     -447.9112       22075.493      12871.076      49.791923    
    113000   297.47814     -444.23555      22077.488      12987.027      49.791923    
    114000   297.13506     -454.92386      22077.722      13106.82       49.791923    
    115000   298.95104     -419.56219      22078.44       13230.966      49.791923    
    116000   303.39755     -505.13434      22075.979      13359.258      49.791923    
    117000   297.45877     -487.41052      22079.55       13474.955      49.791923    
    118000   298.81416     -433.02886      22076.113      13600.002      49.791923    
    119000   302.2242      -488.11394      22077.545      13717.268      49.791923    
    120000   300.49962     -454.33466      22079.002      13844.788      49.791923    
    121000   300.5244      -441.59552      22080.05       13962.462      49.791923    
    122000   301.97155     -463.25422      22080.188      14078.653      49.791923    
    123000   300.09607     -524.82313      22079.071      14200.825      49.791923    
    124000   300.53359     -473.07701      22080.997      14319.187      49.791923    
    125000   297.78162     -502.22037      22081.92       14446.624      49.791923    
    126000   298.40478     -489.90553      22082.549      14568.156      49.791923    
    127000   297.22566     -429.69062      22083.146      14694.545      49.791923    
    128000   300.05752     -498.65871      22082.435      14812.18       49.791923    
    129000   295.88398     -506.69473      22083.947      14936.557      49.791923    
    130000   301.13374     -519.0898       22082.435      15060.902      49.791923    
    131000   296.92578     -512.37045      22082.728      15185.102      49.791923    
    132000   302.9681      -466.32197      22083.29       15304.547      49.791923    
    133000   300.64688     -453.88796      22081.978      15429.017      49.791923    
    134000   298.85335     -482.42305      22086.358      15550.169      49.791923    
    135000   300.46873     -507.77004      22084.614      15670.713      49.791923    
    136000   297.22287     -442.60053      22086.578      15788.822      49.791923    
    137000   302.08527     -540.84569      22084.376      15907.762      49.791923    
    138000   300.13408     -457.17942      22086.06       16023.846      49.791923    
    139000   297.53554     -474.16321      22087.452      16148.597      49.791923    
    140000   300.44793     -468.95435      22085.349      16262.724      49.791923    
    141000   301.06906     -441.08261      22085.71       16381.165      49.791923    
    142000   299.29722     -477.45373      22086.85       16506.802      49.791923    
    143000   298.57512     -443.69905      22090.402      16630.783      49.791923    
    144000   302.69778     -534.99548      22087.916      16750.274      49.791923    
    145000   298.59409     -451.89108      22087.306      16872.395      49.791923    
    146000   298.91681     -468.98079      22087.566      16990.671      49.791923    
    147000   301.39664     -472.13148      22089.121      17109.574      49.791923    
    148000   300.05284     -474.18662      22089.574      17226.162      49.791923    
    149000   301.99996     -497.9252       22089.645      17345.516      49.791923    
    150000   300.87662     -433.6688       22089.921      17462.246      49.791923    
    151000   302.15233     -419.97448      22088.752      17584.603      49.791923    
    152000   301.18697     -461.5755       22090.057      17715.421      49.791923    
    153000   297.01525     -494.15776      22091.738      17831.094      49.791923    
    154000   297.17168     -454.18713      22092.335      17948.809      49.791923    
    155000   298.31379     -456.75314      22090.592      18073.406      49.791923    
    156000   299.7397      -489.04277      22092.591      18188.788      49.791923    
    157000   299.28481     -448.60201      22092.771      18310.308      49.791923    
    158000   302.61568     -457.12227      22089.848      18429.54       49.791923    
    159000   299.5461      -427.14366      22092.985      18541.733      49.791923    
    160000   296.496       -447.88646      22094.642      18663.908      49.791923    
    161000   296.94367     -476.14243      22094.678      18775.684      49.791923    
    162000   297.84058     -419.56842      22093.968      18891.456      49.791923    
    163000   298.65541     -468.84045      22093.37       19011.023      49.791923    
    164000   301.28405     -432.25557      22095.078      19134.412      49.791923    
    165000   299.35768     -474.95464      22096.239      19253.651      49.791923    
    166000   300.8201      -450.20805      22092.802      19359.719      49.791923    
    167000   298.12366     -487.04119      22097.492      19481.143      49.791923    
    168000   299.02351     -486.48603      22096.206      19601.172      49.791923    
    169000   302.49505     -446.50099      22092.778      19720.546      49.791923    
    170000   301.61103     -460.12597      22095.945      19845.891      49.791923    
    171000   300.68679     -469.43736      22097.484      19968.306      49.791923    
    172000   299.00679     -503.55619      22096.819      20092.732      49.791923    
    173000   297.94516     -436.42452      22097.879      20218.457      49.791923    
    174000   299.36647     -490.86005      22098.733      20335.493      49.791923    
    175000   297.73872     -518.41492      22097.557      20460.781      49.791923    
    176000   299.17152     -441.74236      22100.021      20588          49.791923    
    177000   301.00796     -477.89376      22097.299      20705.258      49.791923    
    178000   297.87791     -538.3952       22101.145      20819.781      49.791923    
    179000   302.10427     -419.44309      22098.301      20939.732      49.791923    
    180000   298.77586     -434.04256      22100.349      21065.534      49.791923    
    181000   299.9362      -493.0663       22100.431      21183.735      49.791923    
    182000   298.32529     -508.13378      22101.351      21301.943      49.791923    
    183000   302.52454     -506.29842      22099.91       21418.057      49.791923    
    184000   299.33648     -527.25771      22102.321      21540.175      49.791923    
    185000   302.20821     -471.29437      22099.26       21659.244      49.791923    
    186000   298.2228      -432.50407      22102.273      21781.042      49.791923    
    187000   300.29194     -472.6281       22101.002      21897.433      49.791923    
    188000   297.71851     -456.81725      22101.838      22014.124      49.791923    
    189000   297.33185     -426.72314      22103.515      22126.759      49.791923    
    190000   300.13342     -451.75566      22102.839      22249.811      49.791923    
    191000   300.04261     -456.65275      22102.348      22370.594      49.791923    
    192000   300.07298     -502.84693      22103.258      22492.799      49.791923    
    193000   301.12543     -528.9331       22104.804      22616.529      49.791923    
    194000   299.67921     -499.06952      22105.202      22735.412      49.791923    
    195000   300.8603      -473.31759      22105.145      22860.954      49.791923    
    196000   300.83494     -442.47654      22105.36       22975.991      49.791923    
    197000   303.02571     -451.40458      22104.728      23100.699      49.791923    
    198000   300.3471      -474.69749      22104.645      23225.139      49.791923    
    199000   301.79985     -475.81102      22106.322      23341.374      49.791923    
    200000   299.68821     -452.32196      22106.959      23460.115      49.791923    
    201000   300.57623     -417.44376      22107.542      23586.046      49.791923    
    202000   300.35931     -435.23523      22108.284      23705.731      49.791923    
    203000   297.00872     -463.14803      22107.465      23829.152      49.791923    
    204000   302.15929     -467.25839      22108.129      23950.806      49.791923    
    205000   299.15252     -511.82178      22107.306      24065.177      49.791923    
    206000   300.15651     -431.18436      22107.393      24173.602      49.791923    
    207000   299.1761      -530.97126      22109.1        24294.951      49.791923    
    208000   301.25192     -496.27253      22109.462      24412.803      49.791923    
    209000   303.83162     -456.74722      22105.818      24529.907      49.791923    
    210000   300.59047     -432.21032      22108.564      24643.802      49.791923    
    211000   298.9995      -546.16782      22109.838      24757.568      49.791923    
    212000   298.71178     -452.6974       22109.654      24872.588      49.791923    
    213000   301.78962     -558.75496      22109.437      24988.51       49.791923    
    214000   298.74329     -485.30847      22111.537      25107.325      49.791923    
    215000   299.33206     -475.73616      22109.906      25226.503      49.791923    
    216000   301.8648      -484.2441       22108.314      25345.728      49.791923    
    217000   303.57052     -489.17035      22109.973      25463.726      49.791923    
    218000   300.953       -428.54946      22110.713      25585.706      49.791923    
    219000   296.28738     -433.45851      22112.978      25710.573      49.791923    
    220000   301.46173     -517.11486      22113.113      25837.407      49.791923    
    221000   300.70757     -493.71387      22114.577      25953.157      49.791923    
    222000   298.32301     -495.82383      22111.944      26069.169      49.791923    
    223000   302.83863     -480.87561      22109.799      26192.04       49.791923    
    224000   298.79525     -503.09361      22112.711      26309.071      49.791923    
    225000   298.40158     -535.66082      22113.633      26424.448      49.791923    
    226000   299.64414     -480.83482      22113.956      26548.403      49.791923    
    227000   297.61032     -485.13278      22114.246      26670.219      49.791923    
    228000   299.64884     -496.21144      22113.175      26786.903      49.791923    
    229000   298.96094     -448.21049      22112.881      26915.435      49.791923    
    230000   297.83397     -456.44637      22114.998      27038.639      49.791923    
    231000   301.54977     -476.90298      22114.27       27164.47       49.791923    
    232000   299.90127     -479.38523      22114.616      27285.665      49.791923    
    233000   303.13975     -475.84344      22113.254      27410.074      49.791923    
    234000   303.74932     -457.72502      22112.532      27534.964      49.791923    
    235000   299.64198     -388.28933      22117.719      27647.158      49.791923    
    236000   300.80965     -485.1703       22116.434      27763.428      49.791923    
    237000   298.56684     -449.88568      22117.502      27886.547      49.791923    
    238000   300.65805     -455.03455      22118.499      27999.946      49.791923    
    239000   298.26865     -411.59132      22118.62       28122.602      49.791923    
    240000   300.67764     -493.45752      22116.175      28234.543      49.791923    
    241000   301.33418     -499.01806      22118.966      28357.719      49.791923    
    242000   302.68163     -508.60216      22117.294      28480.616      49.791923    
    243000   294.69721     -431.6721       22121.751      28603.448      49.791923    
    244000   297.55388     -434.10343      22118.4        28715.279      49.791923    
    245000   301.37451     -476.73385      22119.462      28840.069      49.791923    
    246000   302.42825     -511.21061      22119.408      28959.47       49.791923    
    247000   298.44447     -476.34854      22119.391      29083.628      49.791923    
    248000   300.02872     -457.87707      22120.291      29198.384      49.791923    
    249000   299.47318     -457.32645      22122.407      29324.645      49.791923    
    250000   298.41786     -426.39618      22120.388      29443.99       49.791923    
    251000   301.555       -451.59425      22120.29       29556.063      49.791923    
    252000   300.89815     -434.3051       22121.071      29671.895      49.791923    
    253000   300.72563     -497.70819      22122.076      29781.087      49.791923    
    254000   302.07976     -481.83682      22122.594      29900.655      49.791923    
    255000   300.57157     -457.18023      22121.655      30027.997      49.791923    
    256000   301.03137     -472.23765      22123.438      30146.706      49.791923    
    257000   298.52418     -472.79883      22121.913      30266.361      49.791923    
    258000   299.31087     -482.49044      22123.243      30383.436      49.791923    
    259000   300.42752     -466.96589      22124.261      30501.685      49.791923    
    260000   297.65789     -470.86356      22125.255      30626.466      49.791923    
    261000   302.80308     -575.03164      22124.275      30745.146      49.791923    
    262000   297.64492     -440.92536      22126.064      30865.611      49.791923    
    263000   301.35215     -413.29476      22125.87       30987.79       49.791923    
    264000   302.52894     -481.16779      22123.209      31113.624      49.791923    
    265000   296.13359     -447.26205      22128.101      31238.386      49.791923    
    266000   301.00078     -420.9294       22126.898      31353.508      49.791923    
    267000   297.77038     -438.93333      22128.302      31482.765      49.791923    
    268000   299.60411     -370.53096      22126.651      31612.019      49.791923    
    269000   297.53587     -473.68019      22129.71       31739.523      49.791923    
    270000   300.62555     -503.14481      22128.788      31856.145      49.791923    
    271000   299.08153     -474.98531      22129.662      31975.985      49.791923    
    272000   297.86911     -408.78347      22129.255      32098.464      49.791923    
    273000   299.69751     -451.59461      22129.961      32217.52       49.791923    
    274000   296.17138     -497.60094      22131.847      32331.104      49.791923    
    275000   297.96652     -511.09669      22132.196      32458.625      49.791923    
    276000   300.65007     -469.04854      22130.273      32575.883      49.791923    
    277000   300.05253     -432.39332      22133.313      32697.669      49.791923    
    278000   299.40322     -445.51148      22132.673      32816.78       49.791923    
    279000   302.84023     -433.38023      22130.386      32944.411      49.791923    
    280000   300.2595      -483.81641      22132.963      33063.966      49.791923    
    281000   298.78244     -473.67693      22135.407      33202.451      49.791923    
    282000   298.26865     -455.51636      22133.286      33323.205      49.791923    
    283000   298.78688     -439.22635      22134.343      33441.24       49.791923    
    284000   297.99254     -471.60691      22133.462      33560.653      49.791923    
    285000   299.66836     -489.17146      22133.844      33683.01       49.791923    
    286000   300.19488     -422.29908      22133.188      33801.888      49.791923    
    287000   299.39759     -420.28927      22134.02       33931.115      49.791923    
    288000   299.13024     -481.35236      22133.739      34045.082      49.791923    
    289000   302.32058     -484.97165      22132.838      34176.163      49.791923    
    290000   301.74261     -441.61567      22134.963      34288.377      49.791923    
    291000   302.15712     -444.14201      22135.88       34411.218      49.791923    
    292000   301.22555     -445.70167      22135.8        34537.138      49.791923    
    293000   298.82818     -428.72162      22138.832      34662.29       49.791923    
    294000   302.6552      -473.10733      22135.132      34784.659      49.791923    
    295000   299.83575     -496.07363      22135.898      34901.354      49.791923    
    296000   298.18249     -457.9105       22138.66       35028.096      49.791923    
    297000   300.38915     -446.49826      22137.503      35151.108      49.791923    
    298000   301.8863      -481.3913       22136.863      35277.959      49.791923    
    299000   301.42413     -420.10192      22135.641      35396.851      49.791923    
    300000   300.18395     -426.63942      22136.561      35511.678      49.791923    
    301000   299.70284     -443.23622      22138.486      35631.548      49.791923    
    302000   300.82368     -477.60795      22138.354      35752.946      49.791923    
    303000   298.36402     -458.32184      22139.669      35873.085      49.791923    
    304000   300.93049     -417.96036      22139.534      35993.687      49.791923    
    305000   298.46153     -437.12574      22139.165      36114.327      49.791923    
    306000   299.17006     -481.24624      22141.217      36240.576      49.791923    
    307000   296.32587     -432.23959      22142.042      36362.303      49.791923    
    308000   299.01943     -485.8313       22139.769      36488.128      49.791923    
    309000   301.62207     -471.68645      22141.387      36611.239      49.791923    
    310000   297.32185     -449.92713      22141.077      36729.657      49.791923    
    311000   296.32843     -430.77791      22144.099      36848.565      49.791923    
    312000   300.82857     -438.52378      22143.611      36970.377      49.791923    
    313000   300.79895     -449.17893      22142.904      37081.639      49.791923    
    314000   302.34107     -516.97494      22144.077      37197.871      49.791923    
    315000   299.93259     -478.83184      22143.102      37316.958      49.791923    
    316000   298.5933      -481.16714      22145.223      37430.726      49.791923    
    317000   298.87676     -426.679        22142.794      37549.723      49.791923    
    318000   302.33531     -460.05986      22143.935      37677.006      49.791923    
    319000   298.93679     -462.29076      22146.187      37797.36       49.791923    
    320000   298.86651     -482.39521      22144.735      37912.507      49.791923    
    321000   298.2883      -485.54771      22145.331      38042.849      49.791923    
    322000   299.41092     -437.39489      22147.944      38165.101      49.791923    
    323000   300.16881     -434.97143      22145.598      38287.735      49.791923    
    324000   301.442       -447.4174       22145.691      38409.603      49.791923    
    325000   300.24265     -446.15755      22146.085      38530.668      49.791923    
    326000   300.32939     -483.0706       22147.037      38658.221      49.791923    
    327000   297.90865     -486.04048      22149.345      38782.588      49.791923    
    328000   303.92841     -483.61243      22147.296      38893.073      49.791923    
    329000   301.6358      -440.79374      22147.263      39017.395      49.791923    
    330000   300.8915      -447.53226      22147.293      39131.581      49.791923    
    331000   302.24689     -397.66938      22147.241      39253.438      49.791923    
    332000   298.48918     -411.35029      22147.425      39371.317      49.791923    
    333000   300.34766     -502.89699      22149.407      39487.798      49.791923    
    334000   297.07856     -426.19563      22149.914      39614.545      49.791923    
    335000   299.98307     -449.20722      22149.241      39730.384      49.791923    
    336000   298.10768     -448.00049      22151.367      39850.238      49.791923    
    337000   299.87332     -499.0948       22150.763      39966.742      49.791923    
    338000   301.6283      -511.98922      22151.067      40078.57       49.791923    
    339000   299.0782      -463.03325      22150.627      40206.347      49.791923    
    340000   302.25995     -486.23007      22149.928      40328.945      49.791923    
    341000   300.37545     -424.4918       22152.008      40448.038      49.791923    
    342000   298.38263     -461.32142      22153.41       40569.139      49.791923    
    343000   301.2526      -408.3222       22151.434      40678.474      49.791923    
    344000   299.55495     -444.44286      22152.725      40806.708      49.791923    
    345000   301.17026     -463.60022      22152.809      40926.204      49.791923    
    346000   301.24387     -532.08604      22153.308      41033.749      49.791923    
    347000   298.967       -360.87828      22150.532      41157.605      49.791923    
    348000   300.77882     -422.71969      22151.502      41271.31       49.791923    
    349000   302.4803      -493.19498      22150.632      41399.354      49.791923    
    350000   300.77372     -556.25899      22154.555      41522.091      49.791923    
    351000   302.27074     -477.91489      22152.645      41634.881      49.791923    
    352000   300.17741     -437.19848      22155.761      41758.744      49.791923    
    353000   299.79749     -473.4846       22155.49       41881.9        49.791923    
    354000   299.29166     -500.81938      22155.264      42011.702      49.791923    
    355000   301.22452     -496.1782       22155.193      42143.345      49.791923    
    356000   300.47641     -456.65881      22157.03       42262.723      49.791923    
    357000   298.63825     -498.30172      22156.151      42396.843      49.791923    
    358000   299.63985     -474.47018      22154.529      42510.731      49.791923    
    359000   300.2252      -475.97207      22154.346      42633.048      49.791923    
    360000   299.85482     -476.73329      22156.133      42759.508      49.791923    
    361000   300.21032     -472.88209      22154.608      42884.393      49.791923    
    362000   300.64186     -440.02348      22154.815      43009.808      49.791923    
    363000   302.00223     -497.21438      22155.121      43128.037      49.791923    
    364000   301.57573     -441.57812      22155.532      43248.741      49.791923    
    365000   299.82594     -485.78397      22157.636      43365.992      49.791923    
    366000   302.72012     -536.89637      22153.444      43494.666      49.791923    
    367000   300.20152     -498.00644      22156.633      43617.605      49.791923    
    368000   300.81129     -499.8249       22157.913      43737.701      49.791923    
    369000   301.45047     -489.14137      22157.303      43863.375      49.791923    
    370000   297.59919     -508.85164      22158.959      43984.115      49.791923    
    371000   298.37248     -481.97704      22159.143      44101.529      49.791923    
    372000   298.60022     -446.36902      22158.952      44223.374      49.791923    
    373000   299.53082     -462.47191      22156.91       44345.759      49.791923    
    374000   298.3618      -450.29278      22161.654      44471.154      49.791923    
    375000   299.17353     -458.93576      22159.958      44589.077      49.791923    
    376000   300.62828     -542.38279      22160.095      44714.645      49.791923    
    377000   301.93675     -515.98702      22161.432      44839.518      49.791923    
    378000   300.89263     -474.71066      22161.619      44964.172      49.791923    
    379000   298.24957     -482.6682       22162.745      45082.523      49.791923    
    380000   298.70704     -462.61944      22161.151      45204.122      49.791923    
    381000   300.2631      -447.04274      22162.665      45320.476      49.791923    
    382000   300.51912     -535.98226      22162.756      45430.151      49.791923    
    383000   304.35062     -482.30552      22161.747      45550.605      49.791923    
    384000   304.30141     -462.83828      22162.549      45676.023      49.791923    
    385000   299.80426     -456.56993      22163.746      45805.195      49.791923    
    386000   298.99231     -399.91763      22163.629      45929.625      49.791923    
    387000   302.03794     -451.53967      22164.292      46056.701      49.791923    
    388000   302.08225     -464.21855      22163.942      46177.114      49.791923    
    389000   299.87023     -531.29549      22165.937      46298.99       49.791923    
    390000   301.02203     -470.58835      22165.274      46428.313      49.791923    
    391000   302.47687     -442.84352      22165.188      46548.464      49.791923    
    392000   304.11162     -472.91586      22164.927      46667.318      49.791923    
    393000   298.62558     -503.10304      22165.505      46787.165      49.791923    
    394000   301.34451     -436.44721      22167.332      46898.308      49.791923    
    395000   302.2963      -507.56214      22165.394      47024.829      49.791923    
    396000   302.62927     -444.3328       22166.869      47151.691      49.791923    
    397000   301.04114     -442.56836      22167.394      47264.31       49.791923    
    398000   300.07531     -484.10029      22168.065      47373.492      49.791923    
    399000   300.39577     -474.75156      22167.457      47489.956      49.791923    
    400000   299.92181     -484.68402      22168.721      47608.697      49.791923    
    401000   301.03994     -469.22491      22168.125      47726.705      49.791923    
    402000   298.19982     -443.26838      22170.156      47837.961      49.791923    
    403000   301.69267     -485.12143      22169.014      47965.653      49.791923    
    404000   304.30528     -361.96162      22169.517      48089.084      49.791923    
    405000   301.34223     -550.1322       22169.913      48214.349      49.791923    
    406000   301.88428     -522.26101      22170.567      48336.489      49.791923    
    407000   300.47237     -454.22057      22171.721      48464.674      49.791923    
    408000   300.77764     -461.55414      22170.897      48591.625      49.791923    
    409000   298.74067     -447.55966      22172.635      48708.887      49.791923    
    410000   301.2554      -468.97263      22171.785      48828.327      49.791923    
    411000   300.90701     -454.44534      22172.789      48949.29       49.791923    
    412000   301.27422     -493.85524      22171.811      49074.938      49.791923    
    413000   301.40435     -535.61401      22172.353      49190.699      49.791923    
    414000   301.8995      -451.60253      22170.843      49307.728      49.791923    
    415000   303.81809     -533.84184      22173.574      49424.455      49.791923    
    416000   301.49267     -460.6285       22172.639      49544.599      49.791923    
    417000   301.02783     -547.95787      22171.748      49662.443      49.791923    
    418000   301.17032     -427.30775      22173.275      49779.263      49.791923    
    419000   299.40743     -467.99788      22174.529      49906.13       49.791923    
    420000   299.77628     -406.78653      22174.252      50015.525      49.791923    
    421000   298.87316     -504.4329       22175.132      50125.408      49.791923    
    422000   303.02071     -516.97254      22171.933      50243.314      49.791923    
    423000   299.23191     -495.31567      22175.108      50364.346      49.791923    
    424000   304.23123     -498.14762      22174.164      50489.505      49.791923    
    425000   300.19074     -552.64897      22177.177      50612.232      49.791923    
    426000   303.27693     -491.1319       22173.902      50732.523      49.791923    
    427000   301.89281     -513.10812      22176.072      50848.067      49.791923    
    428000   300.21531     -447.90532      22177.314      50960.119      49.791923    
    429000   301.53733     -512.62222      22176.965      51088.762      49.791923    
    430000   299.46313     -464.1746       22177.979      51208.089      49.791923    
    431000   301.00427     -504.05812      22175.399      51331.051      49.791923    
    432000   303.63009     -473.10808      22175.271      51439.08       49.791923    
    433000   300.18849     -473.07202      22179.079      51560.405      49.791923    
    434000   297.25152     -520.38564      22179.463      51673.148      49.791923    
    435000   304.13943     -458.13009      22176.943      51793.49       49.791923    
    436000   299.20051     -480.96303      22180.336      51913.375      49.791923    
    437000   298.70835     -467.71535      22182.053      52027.4        49.791923    
    438000   302.60283     -475.06887      22177.911      52140.913      49.791923    
    439000   300.67131     -472.75449      22179.3        52257.348      49.791923    
    440000   299.5282      -470.95264      22181.687      52376.622      49.791923    
    441000   297.83929     -464.01436      22181.247      52495.55       49.791923    
    442000   296.94931     -470.02607      22181.441      52613.978      49.791923    
    443000   300.8952      -452.82635      22183.017      52743.021      49.791923    
    444000   298.77115     -483.1191       22181.984      52867.154      49.791923    
    445000   301.77197     -492.82376      22180.233      52989.736      49.791923    
    446000   302.43599     -485.21781      22182.393      53113.003      49.791923    
    447000   298.4975      -471.43276      22183.596      53237.501      49.791923    
    448000   301.22165     -493.37117      22180.176      53357.528      49.791923    
    449000   299.45376     -528.56726      22183.34       53479.134      49.791923    
    450000   300.22477     -463.35751      22183.385      53595.843      49.791923    
    451000   302.74715     -483.07009      22183.149      53712.038      49.791923    
    452000   303.16273     -495.57514      22184.566      53828.926      49.791923    
    453000   301.45161     -440.30559      22184.971      53961.33       49.791923    
    454000   299.08385     -366.72526      22183.719      54096.65       49.791923    
    455000   301.81991     -478.4879       22184.725      54215.801      49.791923    
    456000   301.59574     -416.9319       22184.279      54338.341      49.791923    
    457000   300.09166     -440.69028      22185.274      54466.37       49.791923    
    458000   299.81405     -477.7279       22185.393      54588.533      49.791923    
    459000   301.65738     -492.98357      22185.197      54704.682      49.791923    
    460000   300.9219      -490.60791      22186.405      54828.923      49.791923    
    461000   302.61974     -541.80415      22186.278      54947.612      49.791923    
    462000   297.48645     -417.58763      22188.242      55066.85       49.791923    
    463000   301.76004     -504.93394      22186.262      55187.007      49.791923    
    464000   302.20582     -513.92613      22187.281      55314.29       49.791923    
    465000   300.46561     -447.79564      22187.84       55433.832      49.791923    
    466000   301.21052     -503.43427      22189.966      55554.438      49.791923    
    467000   298.15216     -442.06816      22190.32       55670.771      49.791923    
    468000   301.77269     -407.94602      22187.83       55801.972      49.791923    
    469000   300.21895     -445.9462       22189.577      55916.844      49.791923    
    470000   303.23533     -429.08105      22187.506      56038.229      49.791923    
    471000   300.44892     -528.29133      22188.702      56146.476      49.791923    
    472000   303.13511     -551.08625      22189.947      56265.208      49.791923    
    473000   299.0478      -455.21893      22191.88       56378.843      49.791923    
    474000   301.62256     -462.12151      22191.525      56508.085      49.791923    
    475000   302.73614     -442.1937       22191.743      56633.757      49.791923    
    476000   301.69856     -399.77069      22189.615      56767.777      49.791923    
    477000   301.32922     -444.65713      22190.569      56889.272      49.791923    
    478000   302.69689     -450.90443      22192.713      57011.855      49.791923    
    479000   301.36495     -432.51448      22191.127      57132.699      49.791923    
    480000   298.80678     -427.82014      22191.97       57251.202      49.791923    
    481000   302.77328     -500.01841      22192.362      57376.556      49.791923    
    482000   301.68755     -499.07261      22192.228      57499.406      49.791923    
    483000   300.43048     -455.89498      22190.404      57612.299      49.791923    
    484000   300.40389     -461.365        22193.817      57729.338      49.791923    
    485000   300.88821     -475.19392      22192.746      57848.919      49.791923    
    486000   300.38387     -438.48397      22193.519      57966.317      49.791923    
    487000   301.87807     -469.50482      22192.648      58090.076      49.791923    
    488000   300.16397     -429.98145      22193.69       58210.297      49.791923    
    489000   302.28469     -471.27545      22194.052      58331.059      49.791923    
    490000   299.57091     -392.58875      22194.491      58450.288      49.791923    
    491000   299.93531     -466.24736      22195.055      58566.974      49.791923    
    492000   301.26368     -427.1225       22194.545      58694.236      49.791923    
    493000   298.20103     -423.37751      22194.446      58807.637      49.791923    
    494000   301.31322     -460.9039       22195.196      58931.946      49.791923    
    495000   300.71735     -488.40178      22194.527      59056.52       49.791923    
    496000   298.72359     -419.75914      22196.432      59176.65       49.791923    
    497000   300.64489     -445.56782      22196.083      59297.349      49.791923    
    498000   300.72724     -446.96093      22195.701      59419.988      49.791923    
    499000   302.58827     -444.943        22196.252      59539.751      49.791923    
    500000   301.94109     -432.27746      22198.431      59656.911      49.791923    
    501000   300.40456     -436.01038      22197.34       59776.998      49.791923    
    502000   298.33689     -477.36065      22197.586      59895.45       49.791923    
    503000   304.39912     -494.84541      22197.917      60015.517      49.791923    
    504000   300.93644     -428.82617      22199.462      60139.168      49.791923    
    505000   298.23418     -439.59743      22200.518      60253.72       49.791923    
    506000   300.89102     -473.76786      22198.48       60378.204      49.791923    
    507000   301.38365     -465.50776      22200.089      60502.321      49.791923    
    508000   297.41745     -442.2086       22202.168      60621.631      49.791923    
    509000   299.23999     -473.44459      22200.718      60746.276      49.791923    
    510000   302.13265     -478.23565      22200.273      60859.649      49.791923    
    511000   300.99567     -473.79946      22201.781      60979.973      49.791923    
    512000   303.03041     -419.02858      22201.346      61105.569      49.791923    
    513000   300.97337     -439.51003      22203.314      61222.881      49.791923    
    514000   301.41829     -491.54121      22203.217      61343.705      49.791923    
    515000   300.74257     -470.8874       22203.284      61462.824      49.791923    
    516000   298.1619      -473.95124      22204.691      61588.07       49.791923    
    517000   303.84169     -451.6933       22204.35       61714.713      49.791923    
    518000   300.53656     -436.44711      22205.209      61839.337      49.791923    
    519000   300.3551      -500.45207      22206.085      61969.196      49.791923    
    520000   303.00636     -484.36986      22204.541      62098.664      49.791923    
    521000   302.16297     -438.12642      22204.835      62219.448      49.791923    
    522000   297.65749     -429.71482      22205.87       62343.361      49.791923    
    523000   301.04926     -439.25784      22206.182      62463.728      49.791923    
    524000   299.00453     -436.4223       22206.707      62583.191      49.791923    
    525000   304.92815     -495.44126      22205.064      62710.996      49.791923    
    526000   302.05925     -506.63595      22207.304      62832.172      49.791923    
    527000   300.52208     -435.38602      22207.99       62951.927      49.791923    
    528000   299.78434     -462.06267      22208.332      63076.605      49.791923    
    529000   300.64604     -514.20332      22207.685      63194.77       49.791923    
    530000   302.02924     -415.2129       22206.61       63320.934      49.791923    
    531000   299.56421     -446.88123      22208.639      63429.58       49.791923    
    532000   301.65368     -489.27875      22210.234      63551.932      49.791923    
    533000   301.74789     -407.16451      22209.391      63685.648      49.791923    
    534000   302.22358     -519.33272      22209.608      63807.984      49.791923    
    535000   300.08088     -427.11423      22209.925      63927.545      49.791923    
    536000   300.3578      -514.83962      22209.355      64041.47       49.791923    
    537000   301.57851     -514.64185      22211.306      64160.276      49.791923    
    538000   303.8784      -562.61189      22211.045      64276.313      49.791923    
    539000   304.14979     -529.57807      22210.293      64396.572      49.791923    
    540000   301.10813     -445.10358      22210.612      64514.088      49.791923    
    541000   301.33622     -464.06132      22212.069      64630.116      49.791923    
    542000   302.07344     -453.0828       22211.463      64754.789      49.791923    
    543000   302.46729     -468.38574      22211.633      64881.941      49.791923    
    544000   299.43096     -408.29929      22213.518      65009.947      49.791923    
    545000   302.86532     -466.86966      22212.522      65131.582      49.791923    
    546000   300.5175      -417.10479      22213.433      65241.938      49.791923    
    547000   304.01095     -523.61282      22212.767      65361.503      49.791923    
    548000   303.25474     -493.14537      22212.847      65472.4        49.791923    
    549000   302.91206     -438.1809       22214.349      65589.377      49.791923    
    550000   301.68594     -412.99562      22213.559      65719.155      49.791923    
    551000   305.19384     -417.69919      22215.527      65838.453      49.791923    
    552000   297.21381     -413.17341      22216.026      65967.825      49.791923    
    553000   302.63589     -510.51004      22214.562      66093.356      49.791923    
    554000   299.32541     -471.21676      22217.232      66209.586      49.791923    
    555000   305.29808     -418.52295      22213.365      66328.058      49.791923    
    556000   301.4989      -473.66878      22216.809      66447.282      49.791923    
    557000   303.81903     -426.57216      22215.568      66568.892      49.791923    
    558000   302.61835     -454.17178      22215.608      66685.268      49.791923    
    559000   299.89476     -427.76792      22217.635      66802.142      49.791923    
    560000   300.76586     -510.36255      22217.286      66928.432      49.791923    
    561000   300.50103     -468.37225      22217.973      67052.848      49.791923    
    562000   303.99888     -454.73882      22215.468      67182.538      49.791923    
    563000   299.4715      -374.76593      22216.424      67311.289      49.791923    
    564000   300.56218     -525.20827      22219.682      67427.862      49.791923    
    565000   299.45009     -466.55035      22217.444      67550.9        49.791923    
    566000   299.42031     -509.90952      22218.215      67667.18       49.791923    
    567000   301.78629     -474.80947      22219.229      67789.68       49.791923    
    568000   298.41274     -427.99123      22219.213      67917.407      49.791923    
    569000   298.56468     -476.18259      22221.802      68044.091      49.791923    
    570000   301.68615     -432.57439      22220.266      68166.539      49.791923    
    571000   300.95078     -444.25293      22221.623      68294.828      49.791923    
    572000   303.19422     -515.36446      22220.824      68426.394      49.791923    
    573000   300.63108     -466.97161      22219.91       68543.933      49.791923    
    574000   302.42844     -453.61615      22219.815      68667.677      49.791923    
    575000   302.40572     -502.45426      22220.471      68799.205      49.791923    
    576000   301.33002     -391.8778       22222.487      68927.603      49.791923    
    577000   302.39565     -469.40067      22222.573      69049.178      49.791923    
    578000   304.97388     -475.67344      22222.929      69169.513      49.791923    
    579000   302.00117     -469.71485      22223.495      69287.349      49.791923    
    580000   300.36276     -410.85697      22222.583      69415.731      49.791923    
    581000   304.31406     -561.51107      22223.171      69543.007      49.791923    
    582000   302.73988     -511.56961      22223.303      69666.081      49.791923    
    583000   302.76669     -441.065        22222.21       69781.404      49.791923    
    584000   300.3391      -440.82716      22224.171      69911.433      49.791923    
    585000   301.2671      -456.83875      22223.007      70038.623      49.791923    
    586000   299.15978     -450.9897       22224.996      70155.675      49.791923    
    587000   301.83616     -440.04545      22224.843      70275.383      49.791923    
    588000   300.59713     -477.2957       22224.46       70399.355      49.791923    
    589000   302.39565     -469.29018      22225.822      70522.542      49.791923    
    590000   303.03493     -502.99762      22224.697      70643.354      49.791923    
    591000   301.54651     -426.90342      22224.913      70764.228      49.791923    
    592000   303.90006     -428.61026      22224.657      70885.493      49.791923    
    593000   302.92339     -407.77661      22224.763      71012.599      49.791923    
    594000   300.19833     -451.15947      22226.236      71142.44       49.791923    
    595000   297.46415     -461.15171      22225.33       71271.72       49.791923    
    596000   303.36797     -477.52172      22226.164      71397.893      49.791923    
    597000   306.10366     -502.79197      22227.797      71526.947      49.791923    
    598000   301.02267     -496.90392      22227.323      71653.908      49.791923    
    599000   302.80545     -507.00755      22227.265      71774.717      49.791923    
    600000   303.81961     -464.8235       22227.697      71904.301      49.791923    
    601000   303.04509     -477.97253      22227.261      72021.92       49.791923    
    602000   299.49688     -451.83947      22230.339      72142.904      49.791923    
    603000   301.912       -507.53603      22231.792      72260.88       49.791923    
    604000   303.94836     -504.2903       22229.131      72387.02       49.791923    
    605000   303.00402     -404.05602      22229.794      72512.968      49.791923    
    606000   300.74722     -459.43757      22230.129      72627.391      49.791923    
    607000   302.54008     -464.19366      22231.033      72746.629      49.791923    
    608000   299.59296     -547.39082      22231.542      72864.559      49.791923    
    609000   304.79022     -477.79906      22229.842      72988.793      49.791923    
    610000   300.30194     -512.46859      22232.292      73102.083      49.791923    
    611000   303.36925     -385.93758      22231.496      73217.555      49.791923    
    612000   300.67112     -458.99578      22233.066      73345.493      49.791923    
    613000   300.47194     -424.29111      22235.44       73468.586      49.791923    
    614000   301.6764      -458.26815      22234.329      73580.895      49.791923    
    615000   303.66755     -426.59633      22232.831      73702.02       49.791923    
    616000   302.8115      -460.34971      22233.882      73830.108      49.791923    
    617000   301.34006     -448.8978       22235.557      73948.175      49.791923    
    618000   299.88016     -402.03886      22235.039      74073.066      49.791923    
    619000   301.8448      -491.60366      22234.007      74199.633      49.791923    
    620000   301.73291     -514.11151      22235.856      74322.017      49.791923    
    621000   301.9621      -401.83379      22234.662      74441.828      49.791923    
    622000   297.63025     -446.74211      22236.523      74567.412      49.791923    
    623000   302.41539     -449.65024      22235.924      74698.042      49.791923    
    624000   303.93078     -511.3595       22236.294      74823.837      49.791923    
    625000   301.85318     -434.7665       22237.375      74946.927      49.791923    
    626000   299.74518     -417.44077      22238.563      75064.427      49.791923    
    627000   302.88368     -428.28125      22236.873      75182.301      49.791923    
    628000   303.38004     -444.41213      22238.375      75307.346      49.791923    
    629000   301.32537     -471.41517      22238.171      75427.266      49.791923    
    630000   304.11714     -457.42026      22238.135      75552.461      49.791923    
    631000   299.18265     -460.97479      22239.853      75681.482      49.791923    
    632000   300.57053     -472.55617      22239.372      75801.89       49.791923    
    633000   301.0914      -508.91929      22239.94       75923.687      49.791923    
    634000   302.67165     -494.18807      22238.582      76046.926      49.791923    
    635000   300.48779     -463.2157       22238.702      76180.9        49.791923    
    636000   303.69497     -515.25276      22238.745      76302.051      49.791923    
    637000   303.64385     -515.68798      22239.658      76428.047      49.791923    
    638000   298.95033     -489.85295      22240.54       76550.331      49.791923    
    639000   301.61686     -438.70214      22239.213      76680.149      49.791923    
    640000   301.31183     -507.39638      22241.307      76809.867      49.791923    
    641000   300.36508     -466.0975       22240.157      76929.146      49.791923    
    642000   298.86747     -514.21248      22242.458      77050.847      49.791923    
    643000   302.59069     -447.5037       22240.65       77171.286      49.791923    
    644000   300.14425     -452.39148      22243.279      77288.749      49.791923    
    645000   302.70379     -498.22183      22240.397      77415.552      49.791923    
    646000   299.93783     -442.05727      22243.681      77531.876      49.791923    
    647000   303.42293     -479.1769       22241.836      77646.023      49.791923    
    648000   302.75648     -525.61515      22241.11       77768.704      49.791923    
    649000   301.04175     -486.89249      22242.916      77881.119      49.791923    
    650000   302.13617     -464.08978      22243.432      77995.183      49.791923    
    651000   302.24619     -488.30269      22243.989      78108.691      49.791923    
    652000   301.96838     -418.00865      22243.201      78229.15       49.791923    
    653000   301.67469     -436.49991      22244.79       78345.079      49.791923    
    654000   300.63011     -396.34362      22245.149      78471.187      49.791923    
    655000   304.35962     -479.06054      22245.513      78595.809      49.791923    
    656000   301.1959      -470.34019      22244.371      78713.787      49.791923    
    657000   305.42267     -512.12004      22245.404      78840.304      49.791923    
    658000   302.37741     -547.91598      22248.008      78951.236      49.791923    
    659000   301.73775     -455.15603      22246.647      79069.941      49.791923    
    660000   303.50321     -428.43063      22247.296      79188.738      49.791923    
    661000   297.61983     -449.79152      22248.748      79310.31       49.791923    
    662000   302.39565     -475.12492      22246.543      79428.783      49.791923    
    663000   300.37571     -399.78902      22247.957      79556.256      49.791923    
    664000   299.01677     -426.29728      22249.174      79683.871      49.791923    
    665000   301.05506     -463.75572      22250.069      79812.815      49.791923    
    666000   302.4601      -426.5628       22248.811      79936.697      49.791923    
    667000   302.52609     -441.41244      22250.027      80064.799      49.791923    
    668000   300.60254     -484.25603      22251.669      80189.956      49.791923    
    669000   303.62286     -551.05233      22249.038      80309.479      49.791923    
    670000   300.12458     -437.18981      22250.049      80431.026      49.791923    
    671000   302.60019     -467.93986      22249.937      80549.763      49.791923    
    672000   301.76231     -417.13609      22249.138      80677.895      49.791923    
    673000   299.82358     -437.62057      22253.19       80802.371      49.791923    
    674000   301.5478      -478.654        22252.248      80926.743      49.791923    
    675000   302.07321     -484.50546      22253.407      81057.074      49.791923    
    676000   303.73079     -465.32864      22248.767      81186.682      49.791923    
    677000   302.76937     -466.83522      22251.775      81305.566      49.791923    
    678000   300.8051      -473.79807      22253.114      81425.113      49.791923    
    679000   301.92046     -495.05016      22253.364      81553.435      49.791923    
    680000   303.78962     -409.91696      22253.745      81675.149      49.791923    
    681000   301.68023     -484.87835      22255.373      81797.68       49.791923    
    682000   305.60739     -511.37913      22253.255      81907.954      49.791923    
    683000   302.64718     -465.20457      22256.289      82031.81       49.791923    
    684000   300.79665     -443.69574      22254.951      82146.426      49.791923    
    685000   300.65702     -453.71752      22255.012      82263.95       49.791923    
    686000   299.81361     -446.22188      22255.697      82385.838      49.791923    
    687000   299.89673     -459.96977      22256.18       82505.72       49.791923    
    688000   301.67043     -412.89584      22256.324      82630.93       49.791923    
    689000   298.55063     -489.67052      22258.382      82754.573      49.791923    
    690000   301.36838     -510.1836       22256.582      82883.856      49.791923    
    691000   304.48235     -497.11153      22255.847      83004.553      49.791923    
    692000   302.70133     -437.6177       22258.192      83126.101      49.791923    
    693000   301.68114     -452.82946      22257.773      83256.047      49.791923    
    694000   300.8753      -446.36987      22259.97       83366.774      49.791923    
    695000   300.32945     -462.45307      22259.197      83489.799      49.791923    
    696000   304.07574     -445.40792      22260.016      83611.913      49.791923    
    697000   300.90863     -465.77662      22261.563      83734.933      49.791923    
    698000   304.66917     -400.05667      22256.89       83850.088      49.791923    
    699000   306.1741      -475.85335      22259.827      83976.896      49.791923    
    700000   299.87609     -399.07273      22261.421      84094.936      49.791923    
    701000   302.11844     -438.57461      22260.9        84219.907      49.791923    
    702000   300.53246     -445.9554       22260.604      84334.544      49.791923    
    703000   304.42832     -425.58922      22261.247      84459.589      49.791923    
    704000   301.91743     -468.92523      22263.74       84581.836      49.791923    
    705000   299.21084     -479.0616       22261.461      84697.303      49.791923    
    706000   302.11284     -426.16487      22264.439      84807.771      49.791923    
    707000   302.27059     -472.40043      22263.378      84931.105      49.791923    
    708000   301.38809     -419.42962      22263.937      85045.198      49.791923    
    709000   300.94953     -419.81946      22265.356      85162.017      49.791923    
    710000   302.28914     -415.7128       22265.357      85275.459      49.791923    
    711000   301.54593     -472.2513       22264.233      85397.808      49.791923    
    712000   302.83499     -436.52856      22262.651      85522.169      49.791923    
    713000   305.59198     -446.5659       22265.15       85640.076      49.791923    
    714000   302.64095     -434.58143      22265.065      85766.466      49.791923    
    715000   303.65996     -415.1508       22263.604      85891.734      49.791923    
    716000   302.65224     -522.2832       22266.645      86019.641      49.791923    
    717000   303.66961     -481.65371      22265.28       86139.316      49.791923    
    718000   306.92965     -509.05082      22265.101      86255.118      49.791923    
    719000   305.1183      -457.48566      22266.279      86380.464      49.791923    
    720000   302.91245     -470.30226      22267.366      86503.82       49.791923    
    721000   303.59571     -536.05393      22266.774      86628.172      49.791923    
    722000   299.92202     -419.17026      22268.021      86753.878      49.791923    
    723000   304.44648     -472.42349      22267.895      86880.358      49.791923    
    724000   303.6546      -512.02934      22267.578      86999.686      49.791923    
    725000   303.2387      -468.03999      22268.102      87119.879      49.791923    
    726000   301.56147     -479.15434      22267.97       87248.34       49.791923    
    727000   304.56661     -430.66636      22266.599      87366.938      49.791923    
    728000   301.15624     -373.82331      22270.233      87484.884      49.791923    
    729000   305.64543     -495.82905      22268.903      87604.885      49.791923    
    730000   306.06326     -514.87685      22269.388      87731.641      49.791923    
    731000   301.66234     -500.19768      22269.747      87853.659      49.791923    
    732000   304.05632     -500.76614      22270.712      87976.371      49.791923    
    733000   302.56303     -482.52093      22270.543      88098.533      49.791923    
    734000   301.26931     -445.01911      22271.485      88215.474      49.791923    
    735000   304.38332     -450.94873      22270.412      88344.704      49.791923    
    736000   302.65911     -443.22398      22272.354      88463.216      49.791923    
    737000   302.30385     -385.67855      22271.653      88589.199      49.791923    
    738000   299.04418     -449.19893      22275.714      88716.713      49.791923    
    739000   303.87068     -384.8961       22272.719      88844.322      49.791923    
    740000   302.84146     -427.96195      22274.175      88967.278      49.791923    
    741000   305.09695     -446.46334      22273.887      89087.833      49.791923    
    742000   300.59575     -446.04435      22274.787      89216.095      49.791923    
    743000   303.69993     -477.3973       22272.984      89336.45       49.791923    
    744000   300.48013     -496.07077      22274.422      89463.817      49.791923    
    745000   299.63811     -422.83733      22276.187      89582.326      49.791923    
    746000   303.69391     -511.72216      22275.893      89701.181      49.791923    
    747000   303.57719     -500.33113      22274.903      89822.937      49.791923    
    748000   303.43648     -460.87362      22275.066      89946.061      49.791923    
    749000   301.65929     -491.91632      22277.183      90068.397      49.791923    
    750000   301.38508     -462.08043      22278.439      90197.15       49.791923    
    751000   304.91134     -448.69709      22275.609      90326.896      49.791923    
    752000   298.60198     -478.80514      22277.683      90452.782      49.791923    
    753000   301.21182     -535.10433      22277.088      90568.624      49.791923    
    754000   302.51505     -465.68848      22279.32       90692.903      49.791923    
    755000   301.59593     -455.12233      22278.398      90816.667      49.791923    
    756000   301.4421      -441.79545      22277.454      90936.285      49.791923    
    757000   299.84149     -426.40696      22282.445      91052.426      49.791923    
    758000   304.54803     -456.53214      22278.171      91170.189      49.791923    
    759000   299.84442     -423.81483      22279.322      91290.973      49.791923    
    760000   301.45466     -430.36935      22280.384      91410.768      49.791923    
    761000   301.30688     -497.93594      22279.895      91538.699      49.791923    
    762000   301.82462     -455.22278      22279.207      91669.434      49.791923    
    763000   301.76743     -502.75633      22279.7        91787.067      49.791923    
    764000   302.52507     -477.24882      22280.442      91901.684      49.791923    
    765000   303.08577     -552.63481      22280.708      92024.955      49.791923    
    766000   303.20028     -450.64471      22284.122      92153.464      49.791923    
    767000   301.8863      -454.17803      22281.579      92280.519      49.791923    
    768000   304.3117      -523.34389      22282.037      92403.291      49.791923    
    769000   305.44881     -485.74232      22282.132      92522.778      49.791923    
    770000   302.22018     -483.93821      22284.033      92654.658      49.791923    
    771000   303.52857     -492.93484      22282.505      92780.757      49.791923    
    772000   304.62701     -515.90196      22283.132      92898.172      49.791923    
    773000   298.96265     -468.07314      22284.922      93027.041      49.791923    
    774000   300.93369     -420.72231      22284.337      93139.103      49.791923    
    775000   304.5056      -466.46184      22282.117      93260.417      49.791923    
    776000   304.50701     -406.57563      22284.288      93379.407      49.791923    
    777000   304.5998      -569.58322      22282.668      93511.461      49.791923    
    778000   300.76549     -500.87087      22284.684      93628.318      49.791923    
    779000   304.23086     -474.6083       22284.804      93756.643      49.791923    
    780000   303.06446     -471.80513      22287.557      93875.983      49.791923    
    781000   302.72714     -461.45523      22285.914      94007.5        49.791923    
    782000   302.05298     -536.16442      22286.72       94124.729      49.791923    
    783000   301.88165     -432.04971      22287.832      94243.25       49.791923    
    784000   298.82724     -489.81698      22288.524      94362.205      49.791923    
    785000   302.76645     -465.03738      22288.009      94488.515      49.791923    
    786000   298.43441     -413.07725      22288.191      94611.407      49.791923    
    787000   301.6006      -500.10201      22289.461      94733.385      49.791923    
    788000   305.0561      -467.17108      22291.054      94855.213      49.791923    
    789000   305.45932     -450.07469      22287.381      94984.909      49.791923    
    790000   304.8784      -552.66663      22289.344      95111.626      49.791923    
    791000   302.05788     -456.71604      22291.574      95229.542      49.791923    
    792000   302.24071     -477.91557      22289.809      95344.799      49.791923    
    793000   304.54682     -526.68777      22290.514      95471.325      49.791923    
    794000   303.23806     -510.7507       22291.002      95598.668      49.791923    
    795000   301.34916     -446.62946      22293.01       95718.548      49.791923    
    796000   301.7058      -484.13294      22291.664      95836.675      49.791923    
    797000   307.44847     -412.95137      22289.297      95959.229      49.791923    
    798000   301.31137     -463.10574      22291.958      96078.189      49.791923    
    799000   302.2223      -478.18883      22294.736      96194.271      49.791923    
    800000   302.51137     -422.69962      22292.642      96314.444      49.791923    
    801000   301.57538     -510.5873       22295.864      96429.973      49.791923    
    802000   302.54219     -412.48639      22293.387      96547.933      49.791923    
    803000   302.67383     -448.78565      22294.605      96679.774      49.791923    
    804000   302.39487     -441.85994      22296.046      96810.451      49.791923    
    805000   303.91513     -502.42262      22292.893      96936.543      49.791923    
    806000   301.02567     -461.39965      22296.405      97055.24       49.791923    
    807000   303.50506     -463.45634      22295.831      97183.117      49.791923    
    808000   302.71149     -441.11296      22294.683      97301.741      49.791923    
    809000   303.80631     -419.45338      22294.903      97417.508      49.791923    
    810000   304.56136     -475.87482      22294.401      97537.667      49.791923    
    811000   303.06542     -450.05731      22295.225      97659.941      49.791923    
    812000   301.93987     -446.59873      22296.112      97782.304      49.791923    
    813000   306.54807     -501.33526      22296.244      97898.007      49.791923    
    814000   304.1458      -437.75724      22296.337      98021.694      49.791923    
    815000   303.03206     -409.42199      22295.827      98150.953      49.791923    
    816000   304.89354     -496.34021      22295.964      98270.633      49.791923    
    817000   301.7943      -445.76313      22297.919      98399.877      49.791923    
    818000   303.69314     -449.24025      22297.754      98515.504      49.791923    
    819000   304.12066     -408.28841      22300.747      98627.361      49.791923    
    820000   302.92088     -484.87923      22298.645      98750.935      49.791923    
    821000   301.61336     -468.88357      22299.453      98878.956      49.791923    
    822000   303.12421     -492.13871      22299.941      99001.551      49.791923    
    823000   304.98868     -509.27674      22298.713      99122.309      49.791923    
    824000   303.23772     -436.32148      22300.111      99246.788      49.791923    
    825000   302.29896     -501.52857      22301.579      99363.804      49.791923    
    826000   303.49453     -504.1596       22300.875      99482.206      49.791923    
    827000   302.511       -460.22478      22301.123      99601.612      49.791923    
    828000   300.26576     -470.81643      22303.676      99730.237      49.791923    
    829000   303.29776     -397.63356      22300.533      99849.755      49.791923    
    830000   304.05732     -462.69485      22301.708      99983.573      49.791923    
    831000   303.20555     -430.45308      22302.666      100111.3       49.791923    
    832000   302.76735     -433.02045      22303.737      100235.56      49.791923    
    833000   301.49302     -451.87592      22303.76       100358.05      49.791923    
    834000   303.86567     -573.08897      22304.003      100490.16      49.791923    
    835000   300.50679     -459.96583      22304.054      100607.15      49.791923    
    836000   305.94955     -504.40449      22302.602      100729.49      49.791923    
    837000   302.61973     -444.38012      22303.27       100848.1       49.791923    
    838000   304.14883     -496.49865      22304.733      100959.79      49.791923    
    839000   303.75305     -488.44789      22306.036      101082.18      49.791923    
    840000   303.45485     -448.3591       22305.032      101216.3       49.791923    
    841000   304.56044     -444.5342       22304.783      101343.31      49.791923    
    842000   302.46682     -400.0748       22305.069      101455.26      49.791923    
    843000   303.77627     -445.1498       22306.765      101573.63      49.791923    
    844000   304.24399     -536.95851      22305.616      101692.58      49.791923    
    845000   301.22556     -493.1824       22307.975      101816.81      49.791923    
    846000   303.02373     -396.09809      22306.695      101935.39      49.791923    
    847000   302.06237     -420.86387      22307.218      102063.51      49.791923    
    848000   303.92561     -497.46943      22306.23       102184.12      49.791923    
    849000   303.63922     -459.38057      22308.25       102297.54      49.791923    
    850000   302.62678     -443.5588       22308.8        102421.77      49.791923    
    851000   303.30333     -493.36709      22306.543      102554.01      49.791923    
    852000   299.77384     -378.52622      22308.957      102675.31      49.791923    
    853000   304.86882     -446.44646      22308.338      102792.6       49.791923    
    854000   300.70849     -421.58234      22309.836      102919.84      49.791923    
    855000   302.28195     -416.35426      22309.483      103042.59      49.791923    
    856000   301.39445     -459.6814       22310.987      103159.65      49.791923    
    857000   303.6381      -395.47158      22310.827      103286.01      49.791923    
    858000   300.94172     -445.24244      22311.713      103408.42      49.791923    
    859000   303.02413     -464.51068      22311.22       103535.34      49.791923    
    860000   304.13534     -507.68304      22311.167      103666.63      49.791923    
    861000   302.55693     -490.19199      22314.411      103787.88      49.791923    
    862000   302.89079     -476.72109      22314.935      103900.45      49.791923    
    863000   303.87284     -421.0603       22314.161      104012.09      49.791923    
    864000   304.7728      -458.11882      22314.549      104132.68      49.791923    
    865000   303.05812     -471.55447      22313.544      104268.22      49.791923    
    866000   299.78507     -485.87884      22316.883      104393.86      49.791923    
    867000   305.86974     -508.79723      22316.467      104517.13      49.791923    
    868000   301.71167     -488.48587      22314.508      104643.97      49.791923    
    869000   301.7546      -423.26066      22314.732      104767.19      49.791923    
    870000   303.1486      -451.71778      22317.141      104885.22      49.791923    
    871000   303.20154     -431.82368      22316.396      105013.34      49.791923    
    872000   304.13811     -444.49199      22316.252      105130.05      49.791923    
    873000   309.11099     -413.01828      22314.581      105254.99      49.791923    
    874000   300.10979     -446.30769      22315.6        105388.9       49.791923    
    875000   300.79349     -438.27939      22318.437      105517.44      49.791923    
    876000   301.71996     -473.24659      22318.246      105645.25      49.791923    
    877000   302.79956     -465.74535      22319.334      105772.1       49.791923    
    878000   302.91612     -466.88513      22321.016      105896.04      49.791923    
    879000   304.06011     -423.2911       22317.565      106023.74      49.791923    
    880000   303.48389     -448.65884      22316.94       106151.65      49.791923    
    881000   303.56438     -451.75419      22320.24       106284.08      49.791923    
    882000   305.03458     -439.19689      22318.828      106411.07      49.791923    
    883000   304.09034     -454.31949      22318.98       106529.83      49.791923    
    884000   303.03746     -480.95873      22320.892      106652.43      49.791923    
    885000   305.84914     -524.3041       22320.698      106767.12      49.791923    
    886000   304.95149     -437.26329      22320.937      106892.78      49.791923    
    887000   304.43357     -434.26292      22321.187      107017.7       49.791923    
    888000   302.42999     -381.7944       22319.595      107138.11      49.791923    
    889000   303.32583     -479.33887      22321.268      107261.01      49.791923    
    890000   304.89646     -509.68316      22323.344      107380.58      49.791923    
    891000   304.22723     -487.42855      22322.916      107504.29      49.791923    
    892000   303.50647     -514.49822      22321.825      107630.39      49.791923    
    893000   300.90364     -446.52827      22324.466      107761.4       49.791923    
    894000   301.72827     -418.35645      22323.53       107891.5       49.791923    
    895000   303.72147     -530.49912      22325.165      108010.85      49.791923    
    896000   303.61028     -465.28671      22324.573      108132.7       49.791923    
    897000   301.09187     -443.89383      22325.189      108263.06      49.791923    
    898000   300.96666     -500.80126      22327.39       108387.15      49.791923    
    899000   304.91053     -487.55103      22323.186      108516.99      49.791923    
    900000   304.43537     -452.60505      22324.611      108644.46      49.791923    
    901000   303.24353     -471.53614      22325.361      108765.52      49.791923    
    902000   303.33546     -510.46548      22326.579      108885.16      49.791923    
    903000   303.6977      -461.71839      22326.284      109002.05      49.791923    
    904000   304.34007     -450.00514      22324.588      109122.3       49.791923    
    905000   300.62068     -421.10509      22328.063      109246.54      49.791923    
    906000   304.11888     -418.24416      22325.869      109374.39      49.791923    
    907000   300.51453     -475.90523      22326.591      109494.56      49.791923    
    908000   304.40648     -442.95787      22327.892      109604.45      49.791923    
    909000   305.0529      -478.44728      22326.129      109721.85      49.791923    
    910000   302.08167     -491.58834      22329.352      109846.11      49.791923    
    911000   302.96201     -479.05898      22327.806      109966.39      49.791923    
    912000   302.05996     -448.54287      22328.749      110085.26      49.791923    
    913000   306.42946     -462.22495      22327.585      110203.63      49.791923    
    914000   303.67745     -432.43202      22327.588      110327.67      49.791923    
    915000   300.96698     -452.28184      22331.363      110451.42      49.791923    
    916000   302.38292     -492.55767      22331.653      110577.09      49.791923    
    917000   302.48595     -449.20015      22330.844      110706.3       49.791923    
    918000   304.06643     -487.68574      22332.958      110833.43      49.791923    
    919000   304.2574      -501.041        22332.426      110952.61      49.791923    
    920000   305.60604     -495.15636      22333.467      111074.64      49.791923    
    921000   306.01621     -458.21466      22331.706      111194.38      49.791923    
    922000   305.26383     -508.52865      22334.225      111314         49.791923    
    923000   307.2785      -450.70692      22331.542      111443.52      49.791923    
    924000   301.21322     -423.69397      22335.089      111564.5       49.791923    
    925000   303.2396      -432.37137      22333.44       111681.7       49.791923    
    926000   301.50518     -457.40808      22335.636      111802.99      49.791923    
    927000   304.16795     -470.82688      22334.966      111928.47      49.791923    
    928000   304.17604     -463.53997      22336.526      112055.88      49.791923    
    929000   300.81241     -516.25176      22337.764      112180.13      49.791923    
    930000   301.60811     -511.62907      22337.288      112304.93      49.791923    
    931000   304.11239     -452.656        22337.718      112427.93      49.791923    
    932000   304.7619      -530.01761      22336.478      112552.8       49.791923    
    933000   305.03544     -462.77647      22338.375      112680.52      49.791923    
    934000   300.33048     -359.02945      22339.542      112810.04      49.791923    
    935000   300.74413     -454.56687      22338.313      112935.38      49.791923    
    936000   299.85218     -405.70158      22339.435      113051.8       49.791923    
    937000   302.57853     -437.60944      22340.974      113181.91      49.791923    
    938000   302.36574     -488.44718      22341.609      113306.66      49.791923    
    939000   304.23438     -408.9595       22339.388      113432.53      49.791923    
    940000   304.43588     -430.86841      22338.308      113544.05      49.791923    
    941000   306.02627     -477.09312      22337.454      113662.07      49.791923    
    942000   302.58807     -486.75025      22340.866      113788.45      49.791923    
    943000   301.82535     -429.11731      22340.361      113914.52      49.791923    
    944000   301.49883     -389.09411      22340.036      114038.67      49.791923    
    945000   304.52652     -494.18456      22341.599      114157.84      49.791923    
    946000   302.627       -447.25159      22340.411      114277.07      49.791923    
    947000   301.80912     -444.06591      22343.404      114399.84      49.791923    
    948000   305.78246     -425.07564      22340.239      114524.43      49.791923    
    949000   304.39076     -434.69645      22343.764      114649.09      49.791923    
    950000   300.49437     -451.78867      22342.244      114770.3       49.791923    
    951000   301.45554     -459.63305      22343.046      114899.28      49.791923    
    952000   300.38485     -484.5235       22343.724      115028.35      49.791923    
    953000   304.13143     -526.98147      22341.042      115153.15      49.791923    
    954000   305.15678     -479.18509      22343.094      115273.56      49.791923    
    955000   304.67694     -505.64459      22344.085      115393.74      49.791923    
    956000   306.03167     -477.34448      22343.366      115513.06      49.791923    
    957000   303.60849     -537.09141      22344.703      115639.36      49.791923    
    958000   304.21182     -492.78829      22345.632      115765.12      49.791923    
    959000   304.47899     -535.702        22344.604      115885.8       49.791923    
    960000   307.31451     -402.97884      22343.117      116006.07      49.791923    
    961000   301.60059     -405.05072      22345.421      116128.31      49.791923    
    962000   306.14782     -548.2253       22343.231      116254.06      49.791923    
    963000   306.85687     -442.73153      22344.196      116375.95      49.791923    
    964000   304.74785     -434.10665      22346.28       116505.7       49.791923    
    965000   302.39782     -487.99763      22346.041      116628.79      49.791923    
    966000   306.13397     -504.99841      22345.931      116746.6       49.791923    
    967000   306.69397     -424.95855      22345.355      116873.31      49.791923    
    968000   304.5577      -458.79275      22345.895      116996.12      49.791923    
    969000   301.35453     -398.31813      22346.679      117114.65      49.791923    
    970000   303.6971      -439.34979      22347.258      117245.41      49.791923    
    971000   304.71816     -471.91388      22345.852      117365.17      49.791923    
    972000   305.53816     -441.28026      22348.867      117490.43      49.791923    
    973000   303.20513     -433.66656      22350.529      117614.43      49.791923    
    974000   302.52009     -410.017        22350.862      117730.46      49.791923    
    975000   305.16388     -493.87351      22350.942      117852.44      49.791923    
    976000   301.02163     -424.13012      22351.461      117976.85      49.791923    
    977000   303.36249     -435.00368      22350.468      118103.08      49.791923    
    978000   308.07405     -456.07412      22350.665      118231.76      49.791923    
    979000   306.28315     -445.04851      22349.993      118356.27      49.791923    
    980000   307.04149     -419.51338      22351.659      118467.84      49.791923    
    981000   300.89636     -433.75062      22351.491      118586.42      49.791923    
    982000   300.31565     -473.27276      22353.891      118708.44      49.791923    
    983000   302.87495     -437.19041      22353.86       118831.02      49.791923    
    984000   303.09892     -481.54904      22352.423      118958.65      49.791923    
    985000   304.85927     -468.1912       22351.533      119083.22      49.791923    
    986000   300.11483     -509.88862      22353.5        119207.98      49.791923    
    987000   305.42012     -441.55181      22353.169      119337.49      49.791923    
    988000   303.83827     -467.48501      22354.601      119470.37      49.791923    
    989000   303.68728     -476.28244      22354.43       119593.21      49.791923    
    990000   305.2917      -361.87934      22353.543      119714.64      49.791923    
    991000   307.32682     -428.92263      22353.463      119823.2       49.791923    
    992000   305.53859     -476.91858      22355.933      119943.1       49.791923    
    993000   304.97629     -417.88119      22356.92       120065.7       49.791923    
    994000   304.03057     -432.76516      22356.073      120190.83      49.791923    
    995000   308.0999      -516.53245      22354.793      120313.57      49.791923    
    996000   303.96169     -484.85656      22357.057      120444.43      49.791923    
    997000   303.78563     -452.51338      22357.232      120563.74      49.791923    
    998000   304.69686     -465.38307      22357.629      120684.65      49.791923    
    999000   300.23318     -503.71622      22357.603      120820.46      49.791923    
   1000000   303.95546     -412.20688      22357.86       120940.9       49.791923    
   1001000   303.1288      -450.87116      22360.174      121077.33      49.791923    
   1002000   305.14814     -504.88022      22356.623      121193.82      49.791923    
   1003000   302.89412     -476.82809      22359.792      121300.28      49.791923    
   1004000   299.96928     -448.85138      22360.908      121428.11      49.791923    
   1005000   301.80858     -434.39359      22360.591      121550.06      49.791923    
   1006000   305.31312     -437.01042      22359.86       121681.24      49.791923    
   1007000   302.57019     -429.9334       22360.284      121800.4       49.791923    
   1008000   302.90585     -490.00372      22362.027      121920.5       49.791923    
   1009000   306.83647     -462.58106      22361.746      122038.29      49.791923    
   1010000   300.66325     -441.40215      22361.491      122167.24      49.791923    
   1011000   304.95941     -470.86537      22363.017      122300.28      49.791923    
   1012000   302.73709     -513.69906      22361.862      122418.94      49.791923    
   1013000   304.64664     -473.60015      22361.806      122545.46      49.791923    
   1014000   306.50057     -432.82409      22362.611      122673.64      49.791923    
   1015000   302.2534      -451.05962      22361.1        122787.18      49.791923    
   1016000   302.38592     -413.69785      22362.317      122910.65      49.791923    
   1017000   305.81582     -429.40073      22363.868      123035.84      49.791923    
   1018000   303.76776     -486.63827      22364.116      123164.86      49.791923    
   1019000   305.59514     -438.00699      22363.268      123284         49.791923    
   1020000   304.28274     -451.82092      22365.309      123409.64      49.791923    
Loop time of 13384.3 on 4 procs for 1000000 steps with 10296 atoms

Performance: 6.455 ns/day, 3.718 hours/ns, 74.714 timesteps/s, 769.259 katom-step/s
90.1% CPU use with 4 MPI tasks x 1 OpenMP threads

MPI task timing breakdown:
Section |  min time  |  avg time  |  max time  |%varavg| %total
---------------------------------------------------------------
Pair    | 9245.1     | 9549.2     | 9918.2     | 249.2 | 71.35
Bond    | 500.75     | 509.8      | 521.97     |  34.1 |  3.81
Kspace  | 2173       | 2542.1     | 2844.2     | 482.3 | 18.99
Neigh   | 432.66     | 432.69     | 432.71     |   0.1 |  3.23
Comm    | 274.15     | 285.25     | 295.38     |  45.7 |  2.13
Output  | 0.11663    | 0.13919    | 0.18458    |   7.2 |  0.00
Modify  | 25.36      | 26.008     | 26.598     |   8.7 |  0.19
Other   |            | 39.11      |            |       |  0.29

Nlocal:           2574 ave        2669 max        2528 min
Histogram: 1 2 0 0 0 0 0 0 0 1
Nghost:        12034.2 ave       12108 max       11923 min
Histogram: 1 0 0 0 0 0 1 1 0 1
Neighs:         776478 ave      818855 max      757807 min
Histogram: 2 1 0 0 0 0 0 0 0 1

Total # of neighbors = 3105910
Ave neighs/atom = 301.66181
Ave special neighs/atom = 10.393357
Neighbor list builds = 16946
Dangerous builds = 0

write_data      structure_pekk_thermal.data
System init for write_data ...
PPPM initialization ...
  using 12-bit tables for long-range coulomb (src/kspace.cpp:342)
  G vector (1/distance) = 0.23201084
  grid = 18 18 18
  stencil order = 5
  estimated absolute RMS force accuracy = 0.027411176
  estimated relative force accuracy = 8.2547942e-05
  using double precision FFTW3
  3d grid and FFT values/proc = 4508 1620
Generated 21 of 21 mixed pair_coeff terms from arithmetic mixing rule
Total wall time: 3:47:26
