LAMMPS (29 Aug 2024)
OMP_NUM_THREADS environment is not set. Defaulting to 1 thread. (src/comm.cpp:98)
  using 1 OpenMP thread(s) per MPI task
units           real
atom_style      full
boundary        p p p

variable        dt equal 1.0
timestep        ${dt}
timestep        1

pair_style      lj/cut/coul/long 10
bond_style      harmonic
angle_style     harmonic
dihedral_style  fourier
improper_style  cvff
special_bonds   amber
pair_modify     tail yes mix arithmetic
kspace_style    pppm 1.0e-4

# 1. Загрузка структуры
read_data       relaxed_ultem_10ns.data
Reading data file ...
  orthogonal box = (-25.692763 -25.692763 -25.692763) to (25.692763 25.692763 25.692763)
  1 by 2 by 3 MPI processor grid
  reading atoms ...
  11606 atoms
  reading velocities ...
  11606 velocities
  scanning bonds ...
  3 = max bonds/atom
  scanning angles ...
  6 = max angles/atom
  scanning dihedrals ...
  24 = max dihedrals/atom
  scanning impropers ...
  1 = max impropers/atom
  orthogonal box = (-25.692763 -25.692763 -25.692763) to (25.692763 25.692763 25.692763)
  1 by 2 by 3 MPI processor grid
  reading bonds ...
  12775 bonds
  reading angles ...
  21504 angles
  reading dihedrals ...
  33236 dihedrals
  reading impropers ...
  3220 impropers
Finding 1-2 1-3 1-4 neighbors ...
  special bond factors lj:    0        0        0.5     
  special bond factors coul:  0        0        0.8333333333333334
     4 = max # of 1-2 neighbors
    10 = max # of 1-3 neighbors
    19 = max # of 1-4 neighbors
    22 = max # of special neighbors
  special bonds CPU = 0.002 seconds
  read_data CPU = 0.268 seconds

# 2. Создаем папку checkpoints
shell mkdir checkpoints

dump 2 all custom 50000 ./checkpoints/smth.*.pos id type x y z

# Параметры
variable        Nexchange equal 20
variable Nbin equal 20

# ширина слоя вручную (или посчитай заранее)
compute layers all chunk/atom bin/1d x lower 2.57 units box

fix temp_profile all ave/chunk 100 1000 100000 layers temp file temp.profile

# 3. Сначала термостатирование
# Используем NVT с релаксацией
fix             1 all nvt temp 300.0 300.0 100.0
thermo          1000
thermo_style    custom step temp vol

run             10000

CITE-CITE-CITE-CITE-CITE-CITE-CITE-CITE-CITE-CITE-CITE-CITE-CITE

Your simulation uses code contributions which should be cited:

- Type Label Framework: https://doi.org/10.1021/acs.jpcb.3c08419

@Article{Gissinger24,
 author = {Jacob R. Gissinger, Ilia Nikiforov, Yaser Afshar, Brendon Waters, Moon-ki Choi, Daniel S. Karls, Alexander Stukowski, Wonpil Im, Hendrik Heinz, Axel Kohlmeyer, and Ellad B. Tadmor},
 title = {Type Label Framework for Bonded Force Fields in LAMMPS},
 journal = {J. Phys. Chem. B},
 year =    2024,
 volume =  128,
 number =  13,
 pages =   {3282–-3297}
}

CITE-CITE-CITE-CITE-CITE-CITE-CITE-CITE-CITE-CITE-CITE-CITE-CITE

PPPM initialization ...
  using 12-bit tables for long-range coulomb (src/kspace.cpp:342)
  G vector (1/distance) = 0.23878019
  grid = 20 20 20
  stencil order = 5
  estimated absolute RMS force accuracy = 0.032824742
  estimated relative force accuracy = 9.8850734e-05
  using double precision FFTW3
  3d grid and FFT values/proc = 4875 1600
Generated 45 of 45 mixed pair_coeff terms from arithmetic mixing rule
Neighbor list info ...
  update: every = 1 steps, delay = 0 steps, check = yes
  max neighbors/atom: 2000, page size: 100000
  master list distance cutoff = 12
  ghost atom cutoff = 12
  binsize = 6, bins = 9 9 9
  1 neighbor lists, perpetual/occasional/extra = 1 0 0
  (1) pair lj/cut/coul/long, perpetual
      attributes: half, newton on
      pair build: half/bin/newton
      stencil: half/bin/3d
      bin: standard
Per MPI rank memory allocation (min/avg/max) = 21.1 | 21.4 | 21.47 Mbytes
   Step          Temp          Volume    
         0   301.03041      135682.06    
      1000   299.40345      135682.06    
      2000   300.77901      135682.06    
      3000   301.83783      135682.06    
      4000   299.56948      135682.06    
      5000   297.96197      135682.06    
      6000   301.32677      135682.06    
      7000   303.08847      135682.06    
      8000   301.29458      135682.06    
      9000   298.89377      135682.06    
     10000   298.64292      135682.06    
Loop time of 107.222 on 6 procs for 10000 steps with 11606 atoms

Performance: 8.058 ns/day, 2.978 hours/ns, 93.265 timesteps/s, 1.082 Matom-step/s
93.3% CPU use with 6 MPI tasks x 1 OpenMP threads

MPI task timing breakdown:
Section |  min time  |  avg time  |  max time  |%varavg| %total
---------------------------------------------------------------
Pair    | 70.977     | 72.863     | 74.467     |  12.3 | 67.96
Bond    | 3.7834     | 3.9084     | 4.0564     |   4.2 |  3.65
Kspace  | 19.061     | 20.582     | 22.473     |  22.7 | 19.20
Neigh   | 6.3609     | 6.3629     | 6.3652     |   0.1 |  5.93
Comm    | 2.6224     | 2.6664     | 2.7683     |   3.1 |  2.49
Output  | 0.00026907 | 0.00038214 | 0.00074806 |   0.0 |  0.00
Modify  | 0.47976    | 0.49209    | 0.51127    |   1.9 |  0.46
Other   |            | 0.3471     |            |       |  0.32

Nlocal:        1934.33 ave        1974 max        1885 min
Histogram: 1 0 1 1 0 0 0 1 0 2
Nghost:        11281.8 ave       11342 max       11235 min
Histogram: 1 1 0 1 1 0 0 1 0 1
Neighs:         598376 ave      614482 max      587093 min
Histogram: 1 1 0 1 1 1 0 0 0 1

Total # of neighbors = 3590255
Ave neighs/atom = 309.34474
Ave special neighs/atom = 10.910736
Neighbor list builds = 313
Dangerous builds = 0
unfix           1

# 4. Переключаемся на NVE
fix             2 all nve

# 5. RNEMD метод
# Обмен энергией каждые 20 шагов между 1 и 20 слоями
fix             3 all thermal/conductivity ${Nexchange} x ${Nbin}
fix             3 all thermal/conductivity 20 x ${Nbin}
fix             3 all thermal/conductivity 20 x 20

# 6. Мониторинг
# Выводим температуру и переданную энергию
thermo_style    custom step temp epair etotal f_3 lx
thermo          1000

# 7. ЗАПУСК - используем небольшое число для отладки
run             10000
PPPM initialization ...
  using 12-bit tables for long-range coulomb (src/kspace.cpp:342)
  G vector (1/distance) = 0.23878019
  grid = 20 20 20
  stencil order = 5
  estimated absolute RMS force accuracy = 0.032824742
  estimated relative force accuracy = 9.8850734e-05
  using double precision FFTW3
  3d grid and FFT values/proc = 4875 1600
Generated 45 of 45 mixed pair_coeff terms from arithmetic mixing rule
Per MPI rank memory allocation (min/avg/max) = 22.78 | 22.79 | 22.8 Mbytes
   Step          Temp          E_pair         TotEng          f_3             Lx      
     10000   298.64292     -43896.437     -15030.598      0              51.385526    
     11000   299.31286     -44049.669     -15028.043      154.11217      51.385526    
     12000   295.52456     -43983.328     -15025.913      314.89376      51.385526    
     13000   299.57055     -44008.988     -15027.356      452.96015      51.385526    
     14000   300.21665     -44014.859     -15028.127      593.2904       51.385526    
     15000   299.18561     -44002.55      -15030.624      730.91026      51.385526    
     16000   297.13912     -43958.606     -15028.403      886.51273      51.385526    
     17000   296.8963      -44058.855     -15021.743      1035.2262      51.385526    
     18000   297.10534     -44020.291     -15024.112      1163.0603      51.385526    
     19000   299.85028     -44058.664     -15026.368      1321.0162      51.385526    
     20000   299.2301      -44109.756     -15027.167      1448.2983      51.385526    
Loop time of 107.037 on 6 procs for 10000 steps with 11606 atoms

Performance: 8.072 ns/day, 2.973 hours/ns, 93.426 timesteps/s, 1.084 Matom-step/s
91.9% CPU use with 6 MPI tasks x 1 OpenMP threads

MPI task timing breakdown:
Section |  min time  |  avg time  |  max time  |%varavg| %total
---------------------------------------------------------------
Pair    | 70.748     | 72.586     | 74.383     |  12.6 | 67.81
Bond    | 3.8116     | 3.9024     | 4.0315     |   3.4 |  3.65
Kspace  | 19.074     | 20.792     | 22.624     |  22.9 | 19.43
Neigh   | 6.3931     | 6.4032     | 6.4123     |   0.3 |  5.98
Comm    | 2.6241     | 2.6915     | 2.782      |   3.9 |  2.51
Output  | 0.00027644 | 0.00034138 | 0.00065287 |   0.0 |  0.00
Modify  | 0.21518    | 0.21967    | 0.22577    |   0.8 |  0.21
Other   |            | 0.4412     |            |       |  0.41

Nlocal:        1934.33 ave        1965 max        1879 min
Histogram: 1 1 0 0 0 0 0 0 1 3
Nghost:          11303 ave       11416 max       11227 min
Histogram: 1 2 0 1 0 0 0 1 0 1
Neighs:         598521 ave      609614 max      587509 min
Histogram: 1 1 1 0 0 0 1 0 1 1

Total # of neighbors = 3591126
Ave neighs/atom = 309.41978
Ave special neighs/atom = 10.910736
Neighbor list builds = 314
Dangerous builds = 0

print "Checkpoint reached"
Checkpoint reached

# 8. Основной запуск (если отладка успешна)
run            1000000
PPPM initialization ...
  using 12-bit tables for long-range coulomb (src/kspace.cpp:342)
  G vector (1/distance) = 0.23878019
  grid = 20 20 20
  stencil order = 5
  estimated absolute RMS force accuracy = 0.032824742
  estimated relative force accuracy = 9.8850734e-05
  using double precision FFTW3
  3d grid and FFT values/proc = 4875 1600
Generated 45 of 45 mixed pair_coeff terms from arithmetic mixing rule
Per MPI rank memory allocation (min/avg/max) = 22.78 | 22.79 | 22.8 Mbytes
   Step          Temp          E_pair         TotEng          f_3             Lx      
     20000   299.2301      -44109.756     -15027.167      1448.2983      51.385526    
     21000   298.82532     -44030.592     -15023.316      1581.2118      51.385526    
     22000   299.18997     -44000.309     -15024.706      1708.5271      51.385526    
     23000   299.47528     -44054.693     -15024.278      1836.3654      51.385526    
     24000   299.1886      -44052.399     -15024.509      1948.2141      51.385526    
     25000   300.9663      -44065.823     -15024.61       2063.6485      51.385526    
     26000   299.8638      -44018.433     -15025.362      2181.0977      51.385526    
     27000   298.4705      -44036.68      -15022.722      2307.0924      51.385526    
     28000   295.91108     -44019.044     -15020.483      2435.0232      51.385526    
     29000   298.20455     -44027.178     -15025.067      2568.8765      51.385526    
     30000   300.65835     -44023.947     -15025.421      2690.3459      51.385526    
     31000   297.6966      -44008.766     -15019.244      2800.3242      51.385526    
     32000   299.49308     -44012.258     -15021.453      2915.9758      51.385526    
     33000   300.36924     -44046.707     -15021.692      3039.3496      51.385526    
     34000   300.99435     -44039.944     -15020.886      3157.2563      51.385526    
     35000   298.66262     -43999.124     -15022.071      3251.9605      51.385526    
     36000   299.07592     -44081.084     -15022.854      3358.5606      51.385526    
     37000   298.44218     -43975.474     -15015.942      3471.6729      51.385526    
     38000   297.78626     -44037.037     -15020.971      3592.8638      51.385526    
     39000   299.47399     -43956.716     -15019.365      3700.3757      51.385526    
     40000   299.55002     -43970.246     -15016.938      3822.4177      51.385526    
     41000   295.29911     -44030.527     -15016.246      3928.235       51.385526    
     42000   298.87888     -43971.133     -15018.759      4025.3925      51.385526    
     43000   298.74089     -43945.294     -15017.16       4138.4822      51.385526    
     44000   295.80622     -43919.655     -15014.837      4254.6364      51.385526    
     45000   296.73757     -43979.745     -15013.027      4382.9647      51.385526    
     46000   296.08299     -44020.633     -15012.159      4509.9331      51.385526    
     47000   301.1256      -44012.825     -15015.859      4645.2054      51.385526    
     48000   302.40197     -44027.947     -15017.163      4770.6291      51.385526    
     49000   300.52676     -44043.265     -15012.513      4878.8253      51.385526    
     50000   299.79406     -43990.285     -15012.868      4992.2427      51.385526    
     51000   296.37164     -44031.847     -15009.758      5104.6414      51.385526    
     52000   300.94024     -44013.597     -15016.214      5211.3074      51.385526    
     53000   298.67592     -44017.689     -15008.823      5331.8462      51.385526    
     54000   300.76112     -44054.706     -15011.093      5439.619       51.385526    
     55000   299.1911      -44085.495     -15012.123      5557.982       51.385526    
     56000   299.54339     -44001.006     -15012.214      5666.2956      51.385526    
     57000   299.78586     -44024.128     -15012.388      5769.9669      51.385526    
     58000   300.46818     -44006.021     -15015.209      5887.0723      51.385526    
     59000   298.78874     -44028.655     -15010.894      6000.7418      51.385526    
     60000   298.94339     -43998.7       -15006.418      6113.1099      51.385526    
     61000   296.98821     -44027.916     -15008.84       6230.7844      51.385526    
     62000   299.66736     -44025.735     -15002.609      6352.5438      51.385526    
     63000   300.97784     -44063.515     -15010.287      6459.857       51.385526    
     64000   297.32286     -44072.912     -15004.718      6562.2971      51.385526    
     65000   300.51375     -44078.161     -15007.237      6681.7039      51.385526    
     66000   299.35613     -44056.407     -15004.282      6805.9025      51.385526    
     67000   301.79655     -43954.479     -15008.139      6918.7143      51.385526    
     68000   298.66284     -44031.85      -15005.062      7030.0074      51.385526    
     69000   297.50829     -43984.738     -15003.469      7139.74        51.385526    
     70000   299.82167     -44010.517     -15008.482      7248.1693      51.385526    
     71000   298.34636     -44054.751     -15001.64       7376.1174      51.385526    
     72000   302.80466     -44018.151     -15008.574      7479.1718      51.385526    
     73000   297.48312     -43995.157     -15002.754      7600.6988      51.385526    
     74000   296.87981     -44021.424     -15003.314      7699.3448      51.385526    
     75000   298.63133     -43985.418     -15001.749      7813.7051      51.385526    
     76000   298.44795     -43962.432     -15002.162      7933.9951      51.385526    
     77000   298.79361     -44008.789     -15000.988      8049.9028      51.385526    
     78000   299.92756     -44059.66      -15002.62       8165.7841      51.385526    
     79000   300.68708     -44045.731     -15003.162      8279.5239      51.385526    
     80000   295.61904     -43933.939     -14998.28       8391.0562      51.385526    
     81000   298.62731     -44038.871     -14998.4        8485.5994      51.385526    
     82000   297.8584      -44036.778     -14998.433      8596.5775      51.385526    
     83000   298.13179     -44017.734     -14997.377      8703.0519      51.385526    
     84000   297.20852     -44040.172     -14997.38       8833.6756      51.385526    
     85000   297.15097     -44095.185     -14995.924      8956.7825      51.385526    
     86000   298.68625     -43963.727     -14996.401      9070.0247      51.385526    
     87000   301.44154     -44005.81      -14998.14       9181.3281      51.385526    
     88000   297.63731     -44005.441     -14992.633      9294.3956      51.385526    
     89000   295.94855     -43984.243     -14995.844      9413.2666      51.385526    
     90000   299.2426      -43934.481     -14999.164      9536.0909      51.385526    
     91000   302.12525     -44018.623     -14994.684      9663.6512      51.385526    
     92000   300.01385     -44011.413     -14994.944      9785.2135      51.385526    
     93000   300.91395     -44048.542     -14995.585      9895.6006      51.385526    
     94000   299.99892     -44028.676     -14991.873      9999.4318      51.385526    
     95000   298.95562     -44029.825     -14990.676      10108.448      51.385526    
     96000   298.6108      -44032.854     -14990.017      10204.506      51.385526    
     97000   296.32889     -44037.594     -14991.967      10323.559      51.385526    
     98000   298.65735     -43972.242     -14987.146      10435.215      51.385526    
     99000   295.00144     -43992.58      -14988.07       10562.542      51.385526    
    100000   301.21635     -44017.426     -14987.705      10687.609      51.385526    
    101000   297.78978     -44003.962     -14988.266      10816.687      51.385526    
    102000   299.31056     -44040.347     -14989.255      10926.169      51.385526    
    103000   296.81138     -43990.556     -14986.005      11056.993      51.385526    
    104000   299.47887     -43939.218     -14986.249      11164.514      51.385526    
    105000   300.5656      -44045.968     -14989.114      11283.182      51.385526    
    106000   302.74529     -44027.522     -14991.308      11399.077      51.385526    
    107000   299.35444     -44029.034     -14983.494      11520.493      51.385526    
    108000   300.74884     -44020.028     -14985.494      11633.247      51.385526    
    109000   299.94324     -43972.179     -14984.12       11747.537      51.385526    
    110000   298.38323     -43919.67      -14987.379      11862.512      51.385526    
    111000   297.82302     -43971.727     -14983.867      11974.148      51.385526    
    112000   298.15311     -43957.548     -14985.399      12096.985      51.385526    
    113000   297.41423     -43959.575     -14984.168      12211.83       51.385526    
    114000   301.41809     -44029.213     -14984.687      12332.669      51.385526    
    115000   297.55134     -44029.741     -14979.756      12447.078      51.385526    
    116000   298.88354     -44005.691     -14984.196      12560.49       51.385526    
    117000   298.05809     -44005.095     -14984.379      12665.737      51.385526    
    118000   303.66713     -43984.133     -14987.893      12767.017      51.385526    
    119000   298.76336     -43985.942     -14979.19       12881.202      51.385526    
    120000   300.22083     -44104.068     -14979.96       12986.321      51.385526    
    121000   301.92398     -43975.527     -14983.51       13104.924      51.385526    
    122000   301.28842     -44022.315     -14981.501      13212.863      51.385526    
    123000   299.71331     -44017.391     -14983.854      13326.859      51.385526    
    124000   298.11459     -43966.23      -14979.246      13448.643      51.385526    
    125000   299.2954      -43936.344     -14981.42       13576.079      51.385526    
    126000   298.65085     -43990.395     -14976.154      13698.23       51.385526    
    127000   299.4186      -44010.353     -14976.623      13824.694      51.385526    
    128000   298.77965     -43991.423     -14979.636      13943.379      51.385526    
    129000   301.39574     -43992.192     -14977.027      14064.909      51.385526    
    130000   299.72117     -43979.059     -14980.091      14184.417      51.385526    
    131000   298.96764     -44011.619     -14972.453      14298.466      51.385526    
    132000   299.01437     -44022.701     -14975.785      14414.9        51.385526    
    133000   299.16903     -43988.633     -14977.813      14529.217      51.385526    
    134000   300.66114     -43952.552     -14977.17       14651.864      51.385526    
    135000   299.85059     -44043.249     -14973.727      14761.473      51.385526    
    136000   298.7428      -43952.996     -14971.865      14883.182      51.385526    
    137000   299.89977     -44006.236     -14973.063      14995.567      51.385526    
    138000   298.47297     -43970.87      -14973.521      15112.083      51.385526    
    139000   301.90654     -44048.183     -14975.905      15232.322      51.385526    
    140000   297.44898     -44015.068     -14968.238      15347.876      51.385526    
    141000   300.28726     -44033.929     -14971.318      15451.738      51.385526    
    142000   299.02403     -43993.556     -14970.446      15579.249      51.385526    
    143000   300.49957     -44034.544     -14972.52       15691.291      51.385526    
    144000   296.97478     -43992.512     -14969.808      15790.973      51.385526    
    145000   297.85475     -44015.79      -14967.073      15925.666      51.385526    
    146000   299.03962     -44043.315     -14968.453      16044.114      51.385526    
    147000   301.11394     -44009.48      -14968.091      16154.299      51.385526    
    148000   296.89367     -44027.599     -14963.172      16271.444      51.385526    
    149000   297.2164      -44061.944     -14964.942      16391.412      51.385526    
    150000   298.20046     -43962.152     -14969.907      16492.006      51.385526    
    151000   299.64848     -43973.216     -14965.508      16614.691      51.385526    
    152000   299.13213     -43999.31      -14965.944      16738.501      51.385526    
    153000   298.35388     -44015.784     -14965.336      16841.023      51.385526    
    154000   302.12372     -44088.672     -14964.518      16973.818      51.385526    
    155000   299.51057     -43987.683     -14964.08       17094.994      51.385526    
    156000   297.47386     -43983.11      -14959.896      17208.72       51.385526    
    157000   297.37023     -44035.064     -14960.427      17331.781      51.385526    
    158000   301.17219     -43992.304     -14965.596      17450.815      51.385526    
    159000   297.938       -43990.128     -14962.698      17567.775      51.385526    
    160000   298.24349     -43982.713     -14960.793      17677.93       51.385526    
    161000   301.28831     -44079.954     -14963.098      17784.229      51.385526    
    162000   298.02687     -43927.052     -14960.567      17913.761      51.385526    
    163000   301.68295     -44014.619     -14960.108      18031.425      51.385526    
    164000   295.73072     -43977.162     -14953.338      18153.01       51.385526    
    165000   298.39394     -43993.02      -14959.694      18278.025      51.385526    
    166000   298.63014     -43963.463     -14954.732      18397.737      51.385526    
    167000   300.57685     -44023.741     -14958.279      18521.196      51.385526    
    168000   297.66391     -44008.641     -14957.295      18640.428      51.385526    
    169000   297.50961     -43952.579     -14952.52       18752.502      51.385526    
    170000   298.95596     -43944.908     -14955.505      18859.644      51.385526    
    171000   298.7383      -43996.592     -14955.828      18987.481      51.385526    
    172000   300.08605     -44014.975     -14952.933      19093.685      51.385526    
    173000   298.65106     -44112.082     -14954.245      19211.4        51.385526    
    174000   298.80795     -44042.135     -14954.884      19316.9        51.385526    
    175000   300.56824     -44044.502     -14956.806      19441.257      51.385526    
    176000   297.68897     -44042.461     -14948.929      19545.925      51.385526    
    177000   303.85338     -44003.894     -14953.426      19677.697      51.385526    
    178000   300.27831     -44107.833     -14955.335      19799.291      51.385526    
    179000   299.10999     -44032.282     -14954.214      19929.174      51.385526    
    180000   301.94839     -43992.565     -14952.086      20049.591      51.385526    
    181000   299.53148     -43988.97      -14949.978      20168.71       51.385526    
    182000   299.65819     -44023.699     -14946.896      20292.016      51.385526    
    183000   302.15656     -44047.805     -14948.084      20402.98       51.385526    
    184000   297.98675     -44037.216     -14945.818      20525.208      51.385526    
    185000   297.34684     -43981.93      -14946.315      20636.423      51.385526    
    186000   301.82801     -44048.731     -14947.419      20752.049      51.385526    
    187000   297.64295     -43979.084     -14943.745      20868.457      51.385526    
    188000   299.56528     -43974.577     -14948.843      20981.686      51.385526    
    189000   298.43415     -43985.506     -14942.982      21098.379      51.385526    
    190000   301.46144     -44013.624     -14949.69       21220.996      51.385526    
    191000   301.02531     -44025.37      -14946.051      21327.198      51.385526    
    192000   301.43797     -44037.827     -14947.772      21433.082      51.385526    
    193000   299.75792     -44075.117     -14944.319      21547.519      51.385526    
    194000   299.36779     -43942.33      -14943.182      21661.252      51.385526    
    195000   298.73568     -43993.922     -14940.631      21759.888      51.385526    
    196000   299.33289     -44001.009     -14942.022      21879.245      51.385526    
    197000   293.74205     -43914.732     -14941.065      22003.399      51.385526    
    198000   302.92235     -44052.612     -14942.78       22123.29       51.385526    
    199000   299.04169     -44037.792     -14940.264      22226.023      51.385526    
    200000   301.22864     -44040.087     -14943.616      22327.372      51.385526    
    201000   300.85359     -43997.684     -14937.674      22434.513      51.385526    
    202000   298.46676     -43975.646     -14942.6        22549.151      51.385526    
    203000   300.87136     -44018.337     -14940.125      22662.386      51.385526    
    204000   302.49677     -44036.909     -14939.835      22762.393      51.385526    
    205000   298.7159      -44050.618     -14935.481      22860.67       51.385526    
    206000   301.23874     -43951.092     -14939.241      22964.723      51.385526    
    207000   301.11852     -44013.268     -14941.265      23072.16       51.385526    
    208000   297.58838     -44003.934     -14935.717      23187.081      51.385526    
    209000   297.5754      -44039.633     -14935.585      23297.076      51.385526    
    210000   299.73359     -44005.647     -14936.392      23413.944      51.385526    
    211000   299.7386      -44000.933     -14939.057      23515.337      51.385526    
    212000   299.71147     -43975.578     -14937.33       23633.501      51.385526    
    213000   301.17514     -43983.709     -14938.455      23741.118      51.385526    
    214000   297.22258     -44013.705     -14935.577      23848.675      51.385526    
    215000   300.3625      -43989.688     -14938.822      23958.873      51.385526    
    216000   300.99806     -44039.881     -14934.53       24091.765      51.385526    
    217000   301.18999     -44057.875     -14936.182      24201.981      51.385526    
    218000   298.60152     -43980.543     -14932.824      24302.267      51.385526    
    219000   299.66758     -43981.033     -14936.116      24404.572      51.385526    
    220000   299.516       -44036.528     -14931.955      24522.591      51.385526    
    221000   305.19899     -44064.869     -14934.01       24636.937      51.385526    
    222000   299.68013     -44072.156     -14933.799      24756.94       51.385526    
    223000   299.14602     -44021.153     -14933.873      24858.341      51.385526    
    224000   299.45629     -43977.806     -14932.114      24989.123      51.385526    
    225000   300.35916     -44073.11      -14928.537      25111.445      51.385526    
    226000   303.85511     -44033.029     -14934.32       25215.381      51.385526    
    227000   301.03263     -44053.893     -14930.42       25313.921      51.385526    
    228000   299.88584     -44051.417     -14928.596      25429.185      51.385526    
    229000   298.85722     -43970.761     -14925.618      25560.514      51.385526    
    230000   301.65817     -44021.424     -14927.991      25681.919      51.385526    
    231000   297.80451     -43971.971     -14930.476      25796.953      51.385526    
    232000   301.10837     -44043.655     -14929.838      25908.301      51.385526    
    233000   297.81939     -43964.359     -14927.029      26021.628      51.385526    
    234000   302.78669     -44014.73      -14924.524      26124.431      51.385526    
    235000   299.57168     -44077.271     -14925.684      26234.313      51.385526    
    236000   299.50368     -44020.706     -14920.667      26353.519      51.385526    
    237000   302.1663      -44065.386     -14925.304      26469.818      51.385526    
    238000   300.59601     -43992.318     -14923.692      26580.806      51.385526    
    239000   299.67057     -44021.562     -14923.44       26702.017      51.385526    
    240000   299.59549     -44010.875     -14926.477      26818.505      51.385526    
    241000   297.61763     -44024.788     -14920.799      26926.534      51.385526    
    242000   299.39868     -44004.202     -14924.347      27046.485      51.385526    
    243000   302.83124     -44031.193     -14920.104      27165.745      51.385526    
    244000   298.7311      -43953.349     -14919.485      27274.027      51.385526    
    245000   298.70848     -43964.721     -14915.898      27388.834      51.385526    
    246000   301.47032     -43986.293     -14918.146      27504.549      51.385526    
    247000   300.83752     -43974.715     -14921.094      27621.863      51.385526    
    248000   302.26012     -43996.052     -14921.612      27733.599      51.385526    
    249000   300.61906     -43939.073     -14916.801      27853.391      51.385526    
    250000   296.51063     -43974.272     -14917.053      27949.809      51.385526    
    251000   298.50764     -43983.003     -14915.92       28068.29       51.385526    
    252000   299.4015      -44048.785     -14921.102      28184.698      51.385526    
    253000   300.47322     -43969.451     -14917.522      28300.632      51.385526    
    254000   297.54686     -43903.044     -14919.574      28403.021      51.385526    
    255000   298.31123     -44041.909     -14916.014      28495.996      51.385526    
    256000   302.65275     -44038.103     -14918.9        28611.24       51.385526    
    257000   302.88541     -43967.603     -14918.387      28732.626      51.385526    
    258000   300.4444      -44031.57      -14916.391      28840.289      51.385526    
    259000   301.0513      -43970.485     -14915.333      28969.008      51.385526    
    260000   301.87491     -43999.015     -14915.129      29096.163      51.385526    
    261000   302.64278     -44033.492     -14913.554      29225.005      51.385526    
    262000   300.33457     -44046.699     -14911.556      29335.12       51.385526    
    263000   302.20659     -44041.743     -14916.129      29448.085      51.385526    
    264000   303.74578     -44012.027     -14913.528      29564.601      51.385526    
    265000   297.2153      -44024.726     -14911.298      29678.621      51.385526    
    266000   303.11007     -44058.997     -14909.7        29784.207      51.385526    
    267000   299.1856      -44033.103     -14909.724      29912.038      51.385526    
    268000   300.96302     -44034.978     -14914.532      30024.687      51.385526    
    269000   302.55997     -44074.961     -14912.607      30148.625      51.385526    
    270000   300.58414     -43987.639     -14911.395      30251.474      51.385526    
    271000   301.02544     -44003.228     -14913.873      30362.125      51.385526    
    272000   299.8656      -43960.797     -14908.152      30478.356      51.385526    
    273000   298.34949     -43992.255     -14908.497      30593.171      51.385526    
    274000   295.44834     -44033.865     -14903.735      30699.962      51.385526    
    275000   301.69916     -44020.321     -14908.434      30815.879      51.385526    
    276000   300.56981     -44102.099     -14908.985      30921.495      51.385526    
    277000   302.37215     -44028.281     -14909.952      31035.147      51.385526    
    278000   302.24948     -44015.773     -14905.65       31164.75       51.385526    
    279000   300.0139      -43928.95      -14906.961      31280.473      51.385526    
    280000   301.03368     -44047.021     -14904.122      31397.199      51.385526    
    281000   301.46487     -44017.098     -14906.579      31511.547      51.385526    
    282000   299.27812     -44025.874     -14903.665      31632.405      51.385526    
    283000   301.25684     -44041.401     -14901.712      31757.274      51.385526    
    284000   301.076       -43975.509     -14905.196      31878.457      51.385526    
    285000   299.3921      -43928.816     -14900.279      31987.802      51.385526    
    286000   302.37637     -44046.132     -14903.548      32095.936      51.385526    
    287000   301.22586     -44004.965     -14898.279      32202.668      51.385526    
    288000   297.55105     -44011.562     -14900.466      32324.055      51.385526    
    289000   299.34485     -44013.454     -14899.828      32446.137      51.385526    
    290000   301.68063     -44047.054     -14901.722      32564.266      51.385526    
    291000   303.5674      -44060.591     -14902.717      32679.777      51.385526    
    292000   300.05258     -43997.075     -14895.684      32793.83       51.385526    
    293000   298.75785     -44033.811     -14895.868      32901.626      51.385526    
    294000   299.07248     -44039.758     -14895.574      33011.548      51.385526    
    295000   300.18995     -43964.675     -14896.69       33126.257      51.385526    
    296000   300.9494      -44030.94      -14895.286      33242.613      51.385526    
    297000   298.41575     -43986.289     -14890.69       33349.795      51.385526    
    298000   300.80448     -44031.156     -14892.128      33447.916      51.385526    
    299000   300.93181     -44022.631     -14893.711      33567.329      51.385526    
    300000   301.80038     -43947.495     -14893.689      33691.648      51.385526    
    301000   300.32811     -43998.014     -14893.357      33804.649      51.385526    
    302000   298.18528     -44022.112     -14893.433      33914.067      51.385526    
    303000   303.28349     -44009.874     -14895.26       34028.561      51.385526    
    304000   298.54224     -43929.886     -14891.393      34146.901      51.385526    
    305000   302.41815     -43929.844     -14890.244      34261.372      51.385526    
    306000   302.00447     -44014.929     -14893.624      34377.701      51.385526    
    307000   305.09309     -43952.976     -14888.732      34497.797      51.385526    
    308000   299.5425      -43996.909     -14891.126      34601.246      51.385526    
    309000   298.72573     -43998.695     -14886.662      34721.475      51.385526    
    310000   298.92059     -43979.614     -14887.049      34832.451      51.385526    
    311000   300.51547     -44073.656     -14886.507      34938.834      51.385526    
    312000   301.17227     -43974.882     -14884.418      35053.188      51.385526    
    313000   300.57848     -44017.427     -14881.929      35172.315      51.385526    
    314000   301.29147     -44020.317     -14886.674      35289.454      51.385526    
    315000   300.06822     -44031.368     -14883.265      35410.967      51.385526    
    316000   305.08865     -44032.598     -14886.376      35528.081      51.385526    
    317000   299.34245     -44027.242     -14882.58       35640.985      51.385526    
    318000   301.37362     -43936.606     -14883.885      35749.245      51.385526    
    319000   298.4783      -44015.55      -14882.237      35886.357      51.385526    
    320000   300.99957     -43914.426     -14881.738      36005.457      51.385526    
    321000   299.40085     -43989.924     -14885.031      36126.545      51.385526    
    322000   300.18056     -44010.928     -14882.163      36235.084      51.385526    
    323000   301.61867     -44047.773     -14884.587      36339.034      51.385526    
    324000   300.6608      -44009.928     -14883.066      36468.629      51.385526    
    325000   303.01441     -43952.748     -14883.329      36594.921      51.385526    
    326000   300.47511     -44026.922     -14880.113      36709.818      51.385526    
    327000   300.38697     -44019.708     -14881.355      36817.928      51.385526    
    328000   299.929       -44044.157     -14877.403      36914.373      51.385526    
    329000   300.1479      -44004.79      -14879.664      37023.278      51.385526    
    330000   301.56803     -43923.338     -14879.681      37136.962      51.385526    
    331000   302.47463     -43979.058     -14875.16       37254.441      51.385526    
    332000   299.89812     -44044.756     -14871.468      37381.781      51.385526    
    333000   302.76064     -44084.513     -14877.022      37475.641      51.385526    
    334000   302.39804     -44073.433     -14876.069      37591.248      51.385526    
    335000   303.9416      -44015.297     -14876.261      37714.455      51.385526    
    336000   303.17934     -43987.44      -14877.881      37823.558      51.385526    
    337000   300.10177     -44017.399     -14868.651      37951.612      51.385526    
    338000   300.67258     -43974.161     -14872.63       38071.966      51.385526    
    339000   299.78008     -43983.217     -14868.548      38179.179      51.385526    
    340000   302.15961     -44062.644     -14872.849      38291.168      51.385526    
    341000   301.34871     -44025.178     -14870.816      38415.837      51.385526    
    342000   303.94357     -44073.714     -14871.035      38542.095      51.385526    
    343000   299.76066     -43939.393     -14872.641      38643.804      51.385526    
    344000   303.32264     -44001.064     -14868.627      38739.561      51.385526    
    345000   299.55657     -44015.76      -14869.767      38864.985      51.385526    
    346000   300.68753     -44028.512     -14869.042      38962.636      51.385526    
    347000   302.22113     -44021.694     -14871.548      39073.503      51.385526    
    348000   302.65313     -44010.171     -14866.896      39187.961      51.385526    
    349000   303.78464     -44060.297     -14869.572      39311.696      51.385526    
    350000   301.45747     -44010.479     -14863.261      39438.504      51.385526    
    351000   298.23201     -44052.948     -14865.458      39545.954      51.385526    
    352000   303.56987     -44049.09      -14869.979      39654.813      51.385526    
    353000   302.77006     -44039.525     -14866.151      39779.071      51.385526    
    354000   299.50384     -44041.718     -14861.808      39892.45       51.385526    
    355000   300.41582     -44070.901     -14862.598      40009.564      51.385526    
    356000   298.71754     -44031.821     -14859.73       40114.342      51.385526    
    357000   303.28821     -44018.788     -14860.038      40218.976      51.385526    
    358000   300.58132     -44088.939     -14861.509      40343.739      51.385526    
    359000   299.34513     -43973.432     -14856.225      40465.766      51.385526    
    360000   301.34504     -44011.099     -14863.132      40572.586      51.385526    
    361000   301.90578     -44043.686     -14858.173      40681.688      51.385526    
    362000   298.46758     -43963.799     -14857.72       40813.665      51.385526    
    363000   301.1151      -44006.027     -14859.225      40915.623      51.385526    
    364000   299.80796     -44029.004     -14858.197      41038.726      51.385526    
    365000   302.12213     -43996.585     -14857.941      41164.368      51.385526    
    366000   302.05233     -44039.46      -14860.745      41286.063      51.385526    
    367000   299.81354     -43964.654     -14856.44       41397.647      51.385526    
    368000   299.48454     -44013.65      -14855.523      41502.394      51.385526    
    369000   298.69718     -44045.108     -14853.417      41611.077      51.385526    
    370000   300.16894     -44038.323     -14856.107      41723.044      51.385526    
    371000   301.28071     -43982.041     -14854.278      41852.23       51.385526    
    372000   302.73632     -44004.692     -14854.963      41984.053      51.385526    
    373000   301.45925     -43954.148     -14854.077      42107.546      51.385526    
    374000   298.84979     -43986.234     -14851.569      42216.96       51.385526    
    375000   299.9702      -44015.822     -14850.19       42328.731      51.385526    
    376000   299.83352     -44019.013     -14850.575      42447.433      51.385526    
    377000   299.04013     -44003.142     -14852.135      42558.434      51.385526    
    378000   299.9911      -43959.21      -14848.284      42677.676      51.385526    
    379000   299.94623     -44026.967     -14850.723      42797.699      51.385526    
    380000   298.79262     -44046.518     -14847.493      42923.415      51.385526    
    381000   298.62769     -44023.966     -14847.56       43022.638      51.385526    
    382000   300.21176     -43996.213     -14847.891      43137.104      51.385526    
    383000   303.69731     -43983.971     -14851.262      43244.279      51.385526    
    384000   300.71857     -43964.727     -14850.839      43352.446      51.385526    
    385000   300.68134     -43973.186     -14848.241      43471.448      51.385526    
    386000   302.19767     -44053.082     -14848.168      43583.803      51.385526    
    387000   298.95484     -43993.755     -14847.664      43696.305      51.385526    
    388000   302.21179     -44005.451     -14849.652      43816.89       51.385526    
    389000   304.06734     -44043.793     -14845.711      43937.928      51.385526    
    390000   301.02095     -44013.28      -14846.679      44044.736      51.385526    
    391000   299.73652     -44000.735     -14844.036      44159.798      51.385526    
    392000   303.48396     -43990.563     -14846.382      44278.723      51.385526    
    393000   299.71718     -43957.28      -14845.096      44410.161      51.385526    
    394000   300.55532     -44021.046     -14841.966      44526.59       51.385526    
    395000   301.36437     -43917.99      -14842.573      44641.802      51.385526    
    396000   299.3156      -43963.682     -14843.013      44756.232      51.385526    
    397000   302.25239     -43954.549     -14843.361      44865.014      51.385526    
    398000   303.37101     -43909.802     -14843.417      44996.297      51.385526    
    399000   301.72819     -43898.279     -14842.742      45108.382      51.385526    
    400000   300.59947     -43969.082     -14840.011      45212.011      51.385526    
    401000   300.82606     -44000.13      -14841.449      45321.176      51.385526    
    402000   300.92306     -44023.701     -14837.956      45431.477      51.385526    
    403000   300.62653     -43986.54      -14838.95       45548.948      51.385526    
    404000   301.72712     -43961.236     -14834.759      45670.854      51.385526    
    405000   300.62148     -43899.263     -14830.588      45779.9        51.385526    
    406000   302.44855     -44020.341     -14837.874      45895.21       51.385526    
    407000   304.33421     -43987.035     -14837.956      46005.172      51.385526    
    408000   301.10902     -43989.863     -14832.957      46126.291      51.385526    
    409000   302.44099     -44012.651     -14839.022      46250.653      51.385526    
    410000   297.99772     -44047.114     -14831.315      46358.482      51.385526    
    411000   300.28361     -44027.779     -14833.927      46480.572      51.385526    
    412000   301.31049     -43950.208     -14836.8        46584.629      51.385526    
    413000   301.99852     -43993.801     -14834.425      46698.138      51.385526    
    414000   301.0941      -44026.563     -14833.056      46810.098      51.385526    
    415000   304.65742     -43993.584     -14832.648      46927.7        51.385526    
    416000   301.58169     -44023.966     -14830.25       47046.865      51.385526    
    417000   304.26119     -44024.149     -14829.876      47168.257      51.385526    
    418000   304.12891     -44066.974     -14833.226      47276.98       51.385526    
    419000   299.99073     -44034.254     -14827.199      47396.782      51.385526    
    420000   300.44257     -44039.063     -14825.339      47517.356      51.385526    
    421000   303.26628     -43988.758     -14834.417      47632.092      51.385526    
    422000   300.42283     -43981.048     -14828.005      47750.718      51.385526    
    423000   300.78235     -43990.952     -14825.233      47850.654      51.385526    
    424000   300.57697     -44010.955     -14830.034      47989.79       51.385526    
    425000   304.0687      -44011.081     -14829.026      48130.135      51.385526    
    426000   301.42233     -43989.283     -14827.343      48235.58       51.385526    
    427000   302.11799     -43962.245     -14829.329      48336.428      51.385526    
    428000   300.36889     -43988.106     -14826.089      48450.248      51.385526    
    429000   302.76822     -44003.63      -14827.355      48580.545      51.385526    
    430000   301.35141     -44014.054     -14828.007      48698.315      51.385526    
    431000   300.70803     -43984.101     -14824.228      48817.369      51.385526    
    432000   303.55236     -44026.11      -14825.648      48937.078      51.385526    
    433000   299.6652      -43931.155     -14822.219      49059.124      51.385526    
    434000   301.50732     -44045.773     -14820.803      49175.485      51.385526    
    435000   301.85222     -44001.132     -14821.687      49279.065      51.385526    
    436000   302.74864     -44072.152     -14818.854      49396.985      51.385526    
    437000   297.96171     -44013.883     -14821.239      49519.556      51.385526    
    438000   299.30413     -43997.325     -14819.194      49631.317      51.385526    
    439000   302.0879      -43989.187     -14818.051      49744.591      51.385526    
    440000   301.83192     -43979.411     -14822.105      49871.411      51.385526    
    441000   303.00853     -44039.495     -14823.321      49978.09       51.385526    
    442000   303.10814     -44022.15      -14820.915      50078.121      51.385526    
    443000   301.09485     -43852.163     -14820.852      50200.355      51.385526    
    444000   300.08248     -43961.564     -14816.328      50309.809      51.385526    
    445000   301.62738     -44018.079     -14820.62       50416.917      51.385526    
    446000   300.28033     -43996.087     -14814.741      50531.951      51.385526    
    447000   302.12851     -43983.222     -14818.22       50659.204      51.385526    
    448000   303.08113     -44015.96      -14815.387      50768.633      51.385526    
    449000   300.54575     -44017.919     -14814.832      50893.626      51.385526    
    450000   300.91543     -43970.836     -14814.73       51011.493      51.385526    
    451000   302.18023     -44022.018     -14816.15       51125.151      51.385526    
    452000   303.2776      -44003.147     -14817.64       51237.25       51.385526    
    453000   300.84867     -43928.193     -14811.992      51340.343      51.385526    
    454000   301.8012      -44055.176     -14812.772      51479.263      51.385526    
    455000   302.76723     -43979.514     -14810.183      51606.117      51.385526    
    456000   301.14388     -44036.846     -14812.139      51733.304      51.385526    
    457000   306.2202      -43966.153     -14816.923      51846.436      51.385526    
    458000   304.12005     -44028.977     -14813.377      51947.972      51.385526    
    459000   302.73398     -43997.538     -14813.777      52063.852      51.385526    
    460000   301.96587     -43978.196     -14807.624      52164.583      51.385526    
    461000   301.3201      -44016.436     -14811.691      52290.214      51.385526    
    462000   301.00856     -43927.283     -14811.161      52407.45       51.385526    
    463000   301.96757     -43994.653     -14809.357      52525.381      51.385526    
    464000   300.9304      -43977.028     -14808.758      52644.935      51.385526    
    465000   300.39997     -44057.088     -14812.802      52766.2        51.385526    
    466000   300.54732     -43977.651     -14806.707      52891.184      51.385526    
    467000   301.37734     -43975.622     -14805.666      53012.069      51.385526    
    468000   302.22238     -43981.447     -14809.975      53146.907      51.385526    
    469000   302.35391     -43929.377     -14807.984      53271.032      51.385526    
    470000   298.60464     -43893.168     -14803.742      53399.225      51.385526    
    471000   300.52944     -43989.023     -14804.605      53513.951      51.385526    
    472000   303.15669     -44013.425     -14809.209      53629.48       51.385526    
    473000   302.55532     -43989.73      -14804.16       53725.302      51.385526    
    474000   300.55576     -44001.204     -14804.341      53836.173      51.385526    
    475000   300.92636     -43973.508     -14806.414      53958.47       51.385526    
    476000   303.54691     -43970.356     -14808.655      54063.236      51.385526    
    477000   305.4321      -44016.008     -14806.357      54187.077      51.385526    
    478000   302.35124     -43991.465     -14802.565      54297.408      51.385526    
    479000   300.49566     -43939.827     -14801.078      54415.796      51.385526    
    480000   301.98615     -44021.278     -14803.334      54533.136      51.385526    
    481000   302.80286     -43945.296     -14801.66       54654.326      51.385526    
    482000   301.43276     -44051.002     -14802.332      54771.2        51.385526    
    483000   303.38041     -44004.125     -14799.916      54890.585      51.385526    
    484000   300.30474     -44002.267     -14805.524      55008.203      51.385526    
    485000   299.29321     -44017.112     -14800.662      55134.274      51.385526    
    486000   300.99426     -43979.423     -14803.258      55252.933      51.385526    
    487000   302.02859     -44006.06      -14801.752      55365.902      51.385526    
    488000   300.82219     -43977.547     -14799.796      55478.993      51.385526    
    489000   303.52452     -44003.793     -14802.063      55582.09       51.385526    
    490000   300.83076     -43983.084     -14799.318      55683.771      51.385526    
    491000   300.82126     -44002.602     -14799.726      55797.813      51.385526    
    492000   302.39264     -43995.439     -14798.4        55907.928      51.385526    
    493000   299.89256     -43998.952     -14793.384      56029.141      51.385526    
    494000   302.09167     -44022.231     -14795.735      56134.355      51.385526    
    495000   303.53577     -44005.359     -14792.562      56253.937      51.385526    
    496000   301.30111     -43945.781     -14793.463      56373.719      51.385526    
    497000   301.57743     -44068.482     -14795.345      56487.503      51.385526    
    498000   305.42485     -44038.485     -14798.147      56615.208      51.385526    
    499000   305.11987     -43987.171     -14797.202      56733.718      51.385526    
    500000   302.67593     -44043.877     -14793.521      56869.517      51.385526    
    501000   302.53516     -44029.284     -14794.937      56984.471      51.385526    
    502000   298.9516      -43937.614     -14790.666      57090.63       51.385526    
    503000   303.09759     -44007.008     -14792.016      57199.013      51.385526    
    504000   301.99201     -43964.489     -14789.756      57330.305      51.385526    
    505000   301.93121     -43978.882     -14790.255      57444.762      51.385526    
    506000   300.77574     -43990.075     -14787.597      57561.203      51.385526    
    507000   301.48864     -44014.404     -14789.726      57664.509      51.385526    
    508000   303.14803     -43997.331     -14789.321      57775.797      51.385526    
    509000   302.50862     -44009.714     -14793.798      57886.512      51.385526    
    510000   303.63789     -43966.21      -14787.144      57998.682      51.385526    
    511000   301.61179     -44024.577     -14784.708      58125.025      51.385526    
    512000   303.7113      -43964.79      -14787.228      58240.877      51.385526    
    513000   302.66235     -44000.913     -14787.466      58350.541      51.385526    
    514000   303.13424     -43942.627     -14785.05       58461.343      51.385526    
    515000   301.77383     -44004.065     -14787.059      58576.096      51.385526    
    516000   303.46116     -43971.063     -14788.63       58690.275      51.385526    
    517000   299.77032     -43978.301     -14783.451      58804.697      51.385526    
    518000   302.7392      -43995.633     -14783.597      58926.323      51.385526    
    519000   300.94967     -44044.329     -14782.296      59050.548      51.385526    
    520000   302.02823     -44013.033     -14784.495      59157.025      51.385526    
    521000   302.06432     -44046.18      -14781.904      59278.207      51.385526    
    522000   301.1314      -44004.539     -14781.973      59403.789      51.385526    
    523000   301.89957     -43903.258     -14781.088      59510.553      51.385526    
    524000   298.48403     -43952.869     -14777.89       59635.123      51.385526    
    525000   300.73463     -43943.667     -14780.83       59759.901      51.385526    
    526000   300.8513      -43984.137     -14780.017      59876.614      51.385526    
    527000   302.45713     -44045.921     -14779.566      59986.708      51.385526    
    528000   299.11766     -44013.56      -14775.387      60108.714      51.385526    
    529000   300.57931     -43975.338     -14775.694      60230.903      51.385526    
    530000   299.40136     -44010.394     -14774.961      60341.254      51.385526    
    531000   303.33113     -43973.533     -14778.015      60460.649      51.385526    
    532000   301.89792     -44062.017     -14776.584      60590.395      51.385526    
    533000   303.49689     -43916.631     -14778.766      60707.584      51.385526    
    534000   301.8506      -44027.623     -14775.236      60820.503      51.385526    
    535000   302.96452     -43998.703     -14774.626      60936.16       51.385526    
    536000   302.40692     -44042.092     -14773.963      61066.076      51.385526    
    537000   302.75944     -43943.213     -14772.624      61177.927      51.385526    
    538000   301.80633     -44034.226     -14777.119      61280.005      51.385526    
    539000   302.87882     -43960.082     -14777.446      61409.435      51.385526    
    540000   303.33749     -44022.739     -14773.436      61517.537      51.385526    
    541000   298.12635     -43977.523     -14769.936      61636.744      51.385526    
    542000   301.20119     -43986.937     -14770.685      61761.543      51.385526    
    543000   302.60051     -44011.261     -14773.865      61885.518      51.385526    
    544000   302.8773      -44029.916     -14773.686      62023.929      51.385526    
    545000   301.87434     -43992.422     -14770.864      62140.038      51.385526    
    546000   302.22114     -44016.16      -14769.638      62262.253      51.385526    
    547000   301.24771     -43966.287     -14772.201      62382.022      51.385526    
    548000   302.24747     -44053.541     -14769.872      62499.713      51.385526    
    549000   302.83436     -43953.093     -14768.157      62610.698      51.385526    
    550000   304.65598     -43938.788     -14772.835      62717.559      51.385526    
    551000   302.70348     -43994.156     -14767.968      62836.922      51.385526    
    552000   302.12618     -43981.404     -14769.636      62969.117      51.385526    
    553000   302.76841     -44023.076     -14766.318      63082.19       51.385526    
    554000   303.21557     -43967.704     -14766.444      63178.163      51.385526    
    555000   300.60182     -43983.615     -14764.591      63289.255      51.385526    
    556000   302.79412     -44003.887     -14765.418      63393.178      51.385526    
    557000   302.68987     -43987.492     -14766.677      63511.248      51.385526    
    558000   300.57774     -44022.173     -14765.065      63617.015      51.385526    
    559000   302.82823     -43987.287     -14764.46       63738.942      51.385526    
    560000   300.16373     -43974.12      -14761.928      63843.036      51.385526    
    561000   301.34514     -43957.001     -14761.082      63957.031      51.385526    
    562000   301.11116     -43971.36      -14760.75       64059.822      51.385526    
    563000   300.79103     -44016.363     -14760.403      64188.065      51.385526    
    564000   302.66944     -44018.759     -14761.4        64303.053      51.385526    
    565000   301.88645     -43912.93      -14760.089      64428.064      51.385526    
    566000   304.30194     -44039.899     -14763.855      64541.745      51.385526    
    567000   299.03987     -44024.537     -14757.003      64647.07       51.385526    
    568000   298.8115      -43980.607     -14759.073      64759.022      51.385526    
    569000   303.94141     -43963.207     -14760.586      64878.145      51.385526    
    570000   301.54665     -43928.6       -14758.3        64997.256      51.385526    
    571000   303.02039     -44087.248     -14760.113      65127.805      51.385526    
    572000   303.02493     -43996.417     -14759.83       65252.847      51.385526    
    573000   301.34027     -43997.428     -14756.777      65355.497      51.385526    
    574000   303.37932     -44013.274     -14759.436      65471.73       51.385526    
    575000   300.65329     -44002.421     -14758.171      65584.466      51.385526    
    576000   302.65099     -44031.004     -14757.079      65699.67       51.385526    
    577000   302.29227     -43970.231     -14754.278      65823.14       51.385526    
    578000   298.65116     -43973.295     -14751.403      65927.953      51.385526    
    579000   302.58592     -44036.907     -14754.499      66059.672      51.385526    
    580000   305.02856     -44146.608     -14755.98       66171.825      51.385526    
    581000   303.18012     -44004.931     -14753.779      66300.882      51.385526    
    582000   302.84954     -43984.636     -14755.914      66424.147      51.385526    
    583000   302.2582      -44046.495     -14750.71       66543.558      51.385526    
    584000   304.88325     -44047.307     -14754.899      66654.854      51.385526    
    585000   306.48063     -44032.755     -14758.255      66770.567      51.385526    
    586000   302.29024     -43967.415     -14753.102      66874.019      51.385526    
    587000   302.3165      -44061.951     -14750.082      66992.458      51.385526    
    588000   303.08824     -44059.904     -14750.17       67116.799      51.385526    
    589000   301.35526     -44018.009     -14749.092      67213.771      51.385526    
    590000   302.34019     -44073.009     -14747.585      67337.927      51.385526    
    591000   301.32277     -44018.574     -14745.856      67458.559      51.385526    
    592000   302.14158     -44008.053     -14750.334      67584.094      51.385526    
    593000   303.75209     -43998.048     -14748.486      67683.593      51.385526    
    594000   299.61866     -43982.484     -14743.958      67785.917      51.385526    
    595000   301.75004     -43974.46      -14744.115      67905.941      51.385526    
    596000   302.62706     -43946.685     -14748.477      68038.086      51.385526    
    597000   303.21344     -44004.991     -14746.275      68149.315      51.385526    
    598000   299.69841     -44033.462     -14745.326      68271.916      51.385526    
    599000   303.53894     -44023.375     -14747.499      68385.396      51.385526    
    600000   302.1147      -43997.118     -14746.494      68509.532      51.385526    
    601000   303.90287     -43997.083     -14746.351      68615.32       51.385526    
    602000   304.35043     -43938.764     -14746.804      68732.07       51.385526    
    603000   302.9671      -44041.344     -14737.455      68843.615      51.385526    
    604000   301.11019     -43898.036     -14737.661      68953.763      51.385526    
    605000   301.56104     -43927.834     -14741.197      69060.986      51.385526    
    606000   304.07521     -44009.36      -14742.177      69181.645      51.385526    
    607000   305.08821     -44030.688     -14739.773      69296.836      51.385526    
    608000   303.64075     -43974.547     -14738.948      69424.185      51.385526    
    609000   301.3458      -43981.08      -14737.306      69518.649      51.385526    
    610000   302.81373     -43974.032     -14739.188      69638.422      51.385526    
    611000   302.78575     -43936.309     -14737.726      69753.28       51.385526    
    612000   300.64922     -44015.85      -14735.07       69874.135      51.385526    
    613000   304.25043     -44052.781     -14739.19       69988.511      51.385526    
    614000   302.63593     -43975.813     -14737.265      70110.502      51.385526    
    615000   302.20359     -44018.851     -14735.3        70222.268      51.385526    
    616000   302.29734     -44001.226     -14736.217      70335.998      51.385526    
    617000   302.00879     -43965.418     -14738.244      70446.521      51.385526    
    618000   303.59045     -44008.473     -14734.528      70563.771      51.385526    
    619000   305.00949     -44010.82      -14735.995      70676.481      51.385526    
    620000   302.40303     -44017.417     -14734.741      70795.406      51.385526    
    621000   306.05671     -44058.734     -14733.856      70915.243      51.385526    
    622000   303.2277      -43973.188     -14735.644      71037.376      51.385526    
    623000   303.93971     -43991.837     -14733.639      71152.986      51.385526    
    624000   303.55608     -44031.136     -14736.352      71273.609      51.385526    
    625000   301.48641     -43993.511     -14733.88       71381.445      51.385526    
    626000   304.60444     -44031.267     -14728.201      71505.202      51.385526    
    627000   302.6897      -44047.046     -14732.122      71612.203      51.385526    
    628000   304.81831     -44011.719     -14730.358      71720.634      51.385526    
    629000   301.91411     -43946.985     -14732.71       71837.078      51.385526    
    630000   303.10894     -44000.995     -14724.334      71966.563      51.385526    
    631000   302.57271     -44009.083     -14728.405      72094.743      51.385526    
    632000   301.82331     -43972.564     -14731.437      72201.847      51.385526    
    633000   304.26337     -43997.948     -14728.911      72310.994      51.385526    
    634000   303.04003     -44051.133     -14725.309      72434.937      51.385526    
    635000   303.35401     -43974.096     -14726.359      72550.053      51.385526    
    636000   303.84781     -44032.659     -14725.938      72672.918      51.385526    
    637000   302.09547     -43999.591     -14724.096      72775.957      51.385526    
    638000   301.23967     -43996.581     -14722.371      72881.961      51.385526    
    639000   301.82591     -44062.951     -14720.601      72993.823      51.385526    
    640000   303.58341     -44018.406     -14724.004      73106.29       51.385526    
    641000   302.45984     -43928.186     -14722.056      73233.438      51.385526    
    642000   301.01644     -43977.803     -14719.298      73348.08       51.385526    
    643000   306.39872     -44026.292     -14725.237      73466.737      51.385526    
    644000   303.94794     -44007.097     -14720.907      73590.276      51.385526    
    645000   302.84993     -43986.661     -14722.666      73701.117      51.385526    
    646000   301.97005     -44079.59      -14721.88       73824.93       51.385526    
    647000   304.99047     -44030.471     -14722.241      73932.907      51.385526    
    648000   306.04299     -44052.863     -14720.692      74049.956      51.385526    
    649000   303.72261     -43906.763     -14720.398      74168.648      51.385526    
    650000   303.79557     -44064.553     -14719.634      74282.334      51.385526    
    651000   305.08021     -44012.091     -14721.265      74392.779      51.385526    
    652000   303.3582      -44087.459     -14713.286      74505.705      51.385526    
    653000   302.43524     -44009.204     -14715.602      74620.337      51.385526    
    654000   303.17894     -43983.523     -14714.164      74744.322      51.385526    
    655000   300.53477     -44020.51      -14713.105      74866.614      51.385526    
    656000   303.90404     -43985.602     -14712.122      75003.369      51.385526    
    657000   303.97717     -44058.591     -14714.879      75116.154      51.385526    
    658000   304.72416     -43963.897     -14714.924      75237.878      51.385526    
    659000   305.01108     -44023.128     -14713.49       75349.71       51.385526    
    660000   300.06926     -43971.032     -14710.415      75486.561      51.385526    
    661000   302.78507     -43997.741     -14713.419      75596.827      51.385526    
    662000   302.00924     -44030.125     -14710.921      75716.303      51.385526    
    663000   301.98017     -44021.032     -14711.144      75846.434      51.385526    
    664000   302.42856     -44044.845     -14707.918      75961.041      51.385526    
    665000   303.76503     -43993.378     -14713.914      76079.17       51.385526    
    666000   305.44898     -44018.773     -14711.151      76210.059      51.385526    
    667000   301.55565     -43900.153     -14709.391      76323.32       51.385526    
    668000   302.59522     -44033.808     -14709.754      76452.824      51.385526    
    669000   304.86212     -44084.332     -14709.4        76576.827      51.385526    
    670000   302.80704     -44025.252     -14710.858      76670.818      51.385526    
    671000   303.78322     -43994.721     -14707.916      76786.911      51.385526    
    672000   303.37871     -44033.84      -14705.589      76904.419      51.385526    
    673000   302.37291     -44014.623     -14704.356      77009.209      51.385526    
    674000   301.71091     -43964.785     -14706.111      77116.384      51.385526    
    675000   300.9598      -43954.846     -14704.785      77223.517      51.385526    
    676000   304.76523     -44006.891     -14707.898      77355.207      51.385526    
    677000   305.35173     -43980.178     -14703.882      77475.501      51.385526    
    678000   302.99251     -43998.75      -14700.228      77609.795      51.385526    
    679000   305.39862     -43983.925     -14706.855      77731.668      51.385526    
    680000   303.66261     -43997.827     -14702.52       77856.926      51.385526    
    681000   303.52871     -44016.42      -14701.145      77967.171      51.385526    
    682000   302.02943     -44008.835     -14698.486      78081.226      51.385526    
    683000   304.77669     -43951.364     -14701.724      78208.742      51.385526    
    684000   303.48558     -43934.688     -14700.484      78323.333      51.385526    
    685000   304.29902     -44013.721     -14700.274      78436.111      51.385526    
    686000   305.28235     -44023.901     -14697.601      78573.865      51.385526    
    687000   302.76235     -44011.916     -14696.823      78687.931      51.385526    
    688000   302.25306     -43908.274     -14701.456      78807.509      51.385526    
    689000   304.16254     -44003.72      -14696.127      78910.49       51.385526    
    690000   300.17906     -44008.741     -14695.666      79039.703      51.385526    
    691000   300.33263     -44044.28      -14694.349      79157.067      51.385526    
    692000   303.07887     -44000.655     -14697.351      79269.009      51.385526    
    693000   304.24265     -44018.067     -14694.589      79392.233      51.385526    
    694000   303.73446     -44000.045     -14694.853      79517.961      51.385526    
    695000   304.00718     -43972.026     -14693.548      79638.654      51.385526    
    696000   304.28713     -44039.525     -14694.712      79736.907      51.385526    
    697000   302.78862     -44021.041     -14689.806      79850.168      51.385526    
    698000   301.9957      -44034.553     -14691.857      79979.962      51.385526    
    699000   305.60576     -44000.816     -14695.955      80098.094      51.385526    
    700000   301.95241     -44126.169     -14692.552      80210.432      51.385526    
    701000   302.54457     -43999.81      -14693.863      80322.71       51.385526    
    702000   303.12959     -43969.946     -14692.027      80434.291      51.385526    
    703000   301.98782     -43950.437     -14692.314      80563.659      51.385526    
    704000   302.13097     -44016.763     -14690.023      80670.427      51.385526    
    705000   306.09015     -43967.505     -14688.195      80800.022      51.385526    
    706000   305.11026     -43975.609     -14691.171      80921.425      51.385526    
    707000   302.94168     -43995.769     -14687.528      81023.455      51.385526    
    708000   302.16357     -43952.945     -14682.894      81134.311      51.385526    
    709000   301.79274     -43975.782     -14683.072      81251.925      51.385526    
    710000   309.49701     -43980.388     -14689.945      81373.629      51.385526    
    711000   303.97233     -44070.43      -14684.916      81489.991      51.385526    
    712000   303.45719     -43988.149     -14685.314      81615.48       51.385526    
    713000   301.37515     -44005.812     -14682.185      81740.157      51.385526    
    714000   305.41378     -44029.215     -14682.002      81850.621      51.385526    
    715000   303.91976     -44004.525     -14686.184      81964.739      51.385526    
    716000   304.4904      -43978.06      -14684.451      82082.462      51.385526    
    717000   305.65055     -43952.322     -14680.998      82205.048      51.385526    
    718000   302.80496     -43988.805     -14680.533      82322.19       51.385526    
    719000   303.13286     -43949.053     -14680.164      82443.596      51.385526    
    720000   303.69289     -43991.783     -14679.927      82569.119      51.385526    
    721000   301.19194     -43972.618     -14678.045      82698.662      51.385526    
    722000   306.52799     -43971.726     -14682.516      82815.372      51.385526    
    723000   301.92108     -43970.948     -14677.942      82926.328      51.385526    
    724000   305.88937     -43927.47      -14679.712      83052.04       51.385526    
    725000   303.59975     -44005.723     -14679.743      83169.843      51.385526    
    726000   303.99411     -43977.205     -14678.444      83291.474      51.385526    
    727000   302.74615     -44060.187     -14676.18       83405.012      51.385526    
    728000   302.22582     -43942.297     -14675.602      83513.523      51.385526    
    729000   301.63909     -43941.65      -14676.618      83632.586      51.385526    
    730000   304.11539     -43988.82      -14674.173      83756.311      51.385526    
    731000   300.68415     -43996.18      -14674.005      83882.811      51.385526    
    732000   304.9408      -43977.752     -14675.717      83991.62       51.385526    
    733000   301.66664     -43972.936     -14672.712      84092.598      51.385526    
    734000   303.69803     -44009.101     -14674.239      84218.01       51.385526    
    735000   302.22778     -43945.785     -14671.595      84338.468      51.385526    
    736000   303.70554     -43975.331     -14673.767      84469.234      51.385526    
    737000   303.93981     -43943.626     -14671.578      84590.834      51.385526    
    738000   304.69955     -44029.075     -14672.572      84730.198      51.385526    
    739000   304.05442     -44011.823     -14672.109      84855.74       51.385526    
    740000   301.03693     -43972.93      -14671.56       84972.116      51.385526    
    741000   303.665       -43885.177     -14671.964      85084.398      51.385526    
    742000   306.95108     -43996.723     -14671.986      85212.683      51.385526    
    743000   298.12253     -43945.288     -14669.978      85325.972      51.385526    
    744000   304.17804     -44019.588     -14665.971      85460.732      51.385526    
    745000   303.37689     -43943.719     -14668.767      85572.307      51.385526    
    746000   301.80027     -44002.045     -14670.338      85692.668      51.385526    
    747000   299.10879     -43960.282     -14667.265      85808.132      51.385526    
    748000   303.74636     -43983.91      -14667.233      85929.224      51.385526    
    749000   303.82453     -44049.282     -14665.497      86044.155      51.385526    
    750000   304.43065     -43934.505     -14666.028      86146.278      51.385526    
    751000   306.27049     -44029.96      -14664.262      86278.195      51.385526    
    752000   302.4666      -43968.504     -14666.223      86392.165      51.385526    
    753000   303.05087     -43956.141     -14662.779      86513.151      51.385526    
    754000   303.88753     -44052.594     -14663.748      86638.32       51.385526    
    755000   303.90547     -43994.693     -14664.963      86760.442      51.385526    
    756000   303.12706     -43919.459     -14664.479      86891.343      51.385526    
    757000   304.14129     -43967.591     -14664.628      86998.963      51.385526    
    758000   307.45084     -44006.907     -14664.444      87117.724      51.385526    
    759000   302.77882     -44011.037     -14665.248      87228.207      51.385526    
    760000   303.07394     -43995.708     -14660.035      87326.806      51.385526    
    761000   302.90083     -43885.678     -14660.267      87432.98       51.385526    
    762000   305.06136     -44028.151     -14664.541      87552.333      51.385526    
    763000   306.4029      -43922.659     -14659.627      87681.667      51.385526    
    764000   301.91106     -43974.946     -14662.106      87793.072      51.385526    
    765000   304.74372     -43971.322     -14659.548      87914.865      51.385526    
    766000   306.16345     -43956.61      -14662.919      88037.088      51.385526    
    767000   306.24319     -44063.853     -14661.032      88141.258      51.385526    
    768000   303.38773     -43966.591     -14660.092      88270.403      51.385526    
    769000   304.35394     -43985.215     -14657.344      88404.996      51.385526    
    770000   301.56919     -43958.126     -14656.151      88532.369      51.385526    
    771000   302.94067     -44011.108     -14657.182      88647.475      51.385526    
    772000   306.49026     -43996.995     -14657.489      88763.986      51.385526    
    773000   300.56674     -43964.646     -14652.382      88877.091      51.385526    
    774000   304.54728     -43999.689     -14654.457      88995.747      51.385526    
    775000   306.09234     -43946.995     -14657.147      89122.556      51.385526    
    776000   305.04429     -44013.531     -14654.556      89236.265      51.385526    
    777000   305.29036     -44022.502     -14652.295      89351.601      51.385526    
    778000   301.82672     -44012.079     -14655.608      89460.031      51.385526    
    779000   304.954       -43980.646     -14655.723      89577.666      51.385526    
    780000   306.92453     -43974.225     -14659.538      89691.198      51.385526    
    781000   304.89234     -43970.139     -14658.836      89802.346      51.385526    
    782000   303.9686      -44002.559     -14652.841      89927.262      51.385526    
    783000   302.70162     -43998.402     -14651.673      90038.837      51.385526    
    784000   302.85924     -43918.855     -14652.92       90146.174      51.385526    
    785000   305.60157     -43979.754     -14648.916      90264.374      51.385526    
    786000   303.98709     -43929.445     -14649.342      90374.78       51.385526    
    787000   303.66279     -43915.11      -14650.657      90493.035      51.385526    
    788000   303.60749     -44034.136     -14648.532      90604.27       51.385526    
    789000   303.88753     -44008.105     -14648.878      90719.381      51.385526    
    790000   302.73637     -43944.721     -14649.435      90835.942      51.385526    
    791000   304.19084     -43968.234     -14650.299      90962.769      51.385526    
    792000   302.81199     -43952.166     -14644.835      91089.95       51.385526    
    793000   302.15598     -43971.381     -14647.024      91209.161      51.385526    
    794000   305.86362     -44010.588     -14648.615      91330.75       51.385526    
    795000   302.76665     -43899.144     -14647.968      91439.291      51.385526    
    796000   304.98987     -44026.132     -14646.366      91536.69       51.385526    
    797000   302.666       -44036.398     -14643.933      91659.446      51.385526    
    798000   304.8642      -43971.173     -14645.621      91789.585      51.385526    
    799000   302.55034     -43998.207     -14645.403      91912.465      51.385526    
    800000   306.99354     -44032.653     -14645.878      92033.496      51.385526    
    801000   307.63067     -44031.437     -14643.427      92165.104      51.385526    
    802000   304.08529     -44036.038     -14642.529      92282.456      51.385526    
    803000   303.11792     -43934.371     -14644.865      92389.338      51.385526    
    804000   304.42045     -44063.757     -14640.26       92495.265      51.385526    
    805000   304.64066     -44002.316     -14640.23       92613.353      51.385526    
    806000   304.25599     -44071.384     -14637.121      92739.646      51.385526    
    807000   305.71781     -43989.347     -14641.215      92859.079      51.385526    
    808000   304.69959     -44050.255     -14637.077      92973.847      51.385526    
    809000   307.18454     -44005.361     -14639.822      93098.278      51.385526    
    810000   305.54401     -43938.072     -14640.972      93231.645      51.385526    
    811000   305.26489     -43994.301     -14635.185      93348.57       51.385526    
    812000   307.62236     -44014.063     -14639.982      93476.461      51.385526    
    813000   305.7866      -43956.511     -14634.212      93605.201      51.385526    
    814000   306.58843     -44024.728     -14638.111      93718.373      51.385526    
    815000   303.7563      -44012.645     -14631.849      93852.441      51.385526    
    816000   306.11169     -43991.129     -14636.082      93956.628      51.385526    
    817000   305.69062     -43990.622     -14635.366      94076.119      51.385526    
    818000   306.30944     -43961.653     -14633.315      94204.916      51.385526    
    819000   306.16714     -43923.764     -14635.178      94319.92       51.385526    
    820000   303.33771     -44007.566     -14632.249      94433.958      51.385526    
    821000   308.13349     -44031.086     -14633.082      94547.067      51.385526    
    822000   304.23056     -44030.273     -14630.633      94663.12       51.385526    
    823000   307.47158     -44000.063     -14635.176      94775.863      51.385526    
    824000   302.96085     -44021.676     -14628.096      94893.292      51.385526    
    825000   305.57094     -44001.238     -14629.726      94999.53       51.385526    
    826000   304.50835     -44035.185     -14628.91       95118.726      51.385526    
    827000   303.97923     -43990.821     -14624.196      95225.947      51.385526    
    828000   304.52286     -43985.202     -14623.956      95339.359      51.385526    
    829000   304.23633     -44010.785     -14627.348      95468.159      51.385526    
    830000   307.44164     -44015.448     -14628.621      95581.344      51.385526    
    831000   303.33323     -43949.902     -14625.38       95706.408      51.385526    
    832000   302.68788     -43962.091     -14623.34       95846.723      51.385526    
    833000   306.37037     -43991.888     -14625.395      95967.128      51.385526    
    834000   305.92008     -44034.942     -14623.045      96087.01       51.385526    
    835000   305.05347     -44001.417     -14622.304      96207.865      51.385526    
    836000   300.32425     -43919.289     -14618.831      96323.801      51.385526    
    837000   305.36432     -44006.73      -14624.99       96455.352      51.385526    
    838000   305.77598     -44028.413     -14622.292      96587.341      51.385526    
    839000   304.14446     -43975.236     -14625.667      96703.216      51.385526    
    840000   307.17468     -44036.138     -14622.659      96828.664      51.385526    
    841000   306.0776      -43936.015     -14619.246      96931.547      51.385526    
    842000   300.0979      -43962.315     -14617.296      97042.843      51.385526    
    843000   303.16209     -44027.188     -14618.903      97161.491      51.385526    
    844000   304.32435     -43977.187     -14620.974      97286.976      51.385526    
    845000   304.2488      -43946.268     -14618.256      97398.927      51.385526    
    846000   307.26726     -43955.159     -14617.587      97534.929      51.385526    
    847000   305.77132     -43909.836     -14613.929      97654.702      51.385526    
    848000   305.33218     -43997.875     -14619.263      97764.315      51.385526    
    849000   303.19687     -43949.196     -14612.71       97877.679      51.385526    
    850000   305.33592     -44075.173     -14615.306      97993.486      51.385526    
    851000   306.45781     -43967.75      -14616.26       98105.218      51.385526    
    852000   305.34036     -43981.758     -14612.061      98225.346      51.385526    
    853000   303.57081     -44028.17      -14610.134      98345.062      51.385526    
    854000   303.84574     -43968.032     -14608.895      98457.599      51.385526    
    855000   306.35481     -44043.684     -14613.731      98588.887      51.385526    
    856000   304.64893     -43996.456     -14609.389      98718.842      51.385526    
    857000   300.70669     -43995.473     -14611.286      98834.103      51.385526    
    858000   304.10188     -43982.491     -14607.942      98965.727      51.385526    
    859000   301.91582     -43957.027     -14609.784      99086.542      51.385526    
    860000   307.5766      -43992.603     -14611.704      99194.977      51.385526    
    861000   304.2654      -43989.963     -14609.619      99289.707      51.385526    
    862000   305.45198     -44035.09      -14606.344      99403.6        51.385526    
    863000   303.12744     -43952.085     -14602.518      99508.002      51.385526    
    864000   307.10852     -44079.198     -14603.64       99609.468      51.385526    
    865000   308.53839     -44001.459     -14607.088      99725.045      51.385526    
    866000   307.08724     -43946.323     -14610.211      99842.017      51.385526    
    867000   306.13139     -44062.714     -14608.283      99948.596      51.385526    
    868000   306.40611     -44031.745     -14605.687      100077.5       51.385526    
    869000   305.52811     -43968.585     -14601.159      100212.14      51.385526    
    870000   301.63678     -43964.614     -14602.109      100315.24      51.385526    
    871000   305.88856     -43992.704     -14601.808      100430.56      51.385526    
    872000   305.95835     -44014.816     -14605.179      100549.88      51.385526    
    873000   301.79725     -44059.158     -14598.844      100666.74      51.385526    
    874000   304.49527     -44104.896     -14602.141      100776.05      51.385526    
    875000   306.79028     -44045.844     -14604.019      100894.98      51.385526    
    876000   303.31206     -43992.087     -14600.077      101006.37      51.385526    
    877000   303.04593     -43966.838     -14601.071      101126.18      51.385526    
    878000   305.94854     -43929.515     -14595.647      101236.05      51.385526    
    879000   304.67711     -44017.39      -14600.356      101363.67      51.385526    
    880000   302.14089     -44030.977     -14597.623      101485.64      51.385526    
    881000   304.73532     -43984.463     -14600.541      101602.56      51.385526    
    882000   303.92625     -44017.086     -14596.237      101723.56      51.385526    
    883000   304.07982     -43963.344     -14595.119      101846.02      51.385526    
    884000   303.66079     -43986.347     -14596.249      101952.07      51.385526    
    885000   302.74411     -43970.11      -14595.526      102068.08      51.385526    
    886000   304.45786     -44014.993     -14599.947      102190.93      51.385526    
    887000   304.47084     -43996.112     -14594.855      102310.12      51.385526    
    888000   305.32175     -44027.412     -14595.669      102412.2       51.385526    
    889000   306.43987     -43977.101     -14598.59       102527.6       51.385526    
    890000   303.567       -43998.685     -14594.491      102655.13      51.385526    
    891000   305.63081     -43945.655     -14595.118      102771.83      51.385526    
    892000   303.89097     -44016.384     -14594.541      102910.04      51.385526    
    893000   306.70436     -43993.42      -14594.9        103037.75      51.385526    
    894000   308.84738     -43951.029     -14596.569      103166.31      51.385526    
    895000   300.91185     -43951.324     -14591.111      103280.06      51.385526    
    896000   305.1257      -43896.324     -14590.053      103400.04      51.385526    
    897000   304.98381     -43923.611     -14591.98       103525.36      51.385526    
    898000   302.59826     -44037.217     -14591.924      103642.41      51.385526    
    899000   301.23639     -44051.093     -14591.187      103771.08      51.385526    
    900000   307.38123     -44032.681     -14594.461      103896.51      51.385526    
    901000   308.48375     -43974.718     -14593.577      104011.51      51.385526    
    902000   303.98359     -43957.677     -14588.033      104125.14      51.385526    
    903000   306.37506     -43981.806     -14591.959      104235.2       51.385526    
    904000   305.29779     -43985.801     -14593.793      104348.31      51.385526    
    905000   306.73856     -44055.436     -14589.238      104467.44      51.385526    
    906000   304.59793     -44014.621     -14587.192      104597.19      51.385526    
    907000   304.25273     -44018.478     -14587.416      104717.47      51.385526    
    908000   302.77975     -44082.854     -14586.364      104832.85      51.385526    
    909000   300.63925     -43934.353     -14585.956      104959.37      51.385526    
    910000   307.30803     -44021.771     -14591.042      105078.9       51.385526    
    911000   306.49212     -44009.43      -14585.035      105195.41      51.385526    
    912000   302.54494     -43951.44      -14581.022      105308.23      51.385526    
    913000   307.29357     -44000.502     -14583.674      105437.22      51.385526    
    914000   303.63622     -43945.056     -14581.962      105552.73      51.385526    
    915000   307.40524     -44030.341     -14582.798      105676.57      51.385526    
    916000   305.11911     -44008.885     -14584.983      105796.69      51.385526    
    917000   306.52473     -43980.004     -14582.237      105908.17      51.385526    
    918000   304.35346     -43937.773     -14582.018      106027         51.385526    
    919000   305.55768     -43942.395     -14578.571      106140.17      51.385526    
    920000   304.44085     -44013.8       -14583.268      106259.77      51.385526    
    921000   305.332       -43954.868     -14580.517      106383.6       51.385526    
    922000   305.58953     -43989.179     -14576.646      106497.57      51.385526    
    923000   307.80291     -44006.616     -14580.721      106607.78      51.385526    
    924000   303.33583     -43959.285     -14577.573      106713.29      51.385526    
    925000   306.33416     -44035.534     -14576.714      106819.68      51.385526    
    926000   306.10168     -43929.025     -14576.72       106935.05      51.385526    
    927000   304.29204     -43992.318     -14578.153      107064.03      51.385526    
    928000   304.72041     -44014.394     -14576.558      107188.1       51.385526    
    929000   304.65044     -43987.52      -14575.657      107316.24      51.385526    
    930000   306.21975     -43970.183     -14578.632      107437.4       51.385526    
    931000   305.0457      -43979.931     -14575.429      107560.86      51.385526    
    932000   306.7043      -43929.705     -14572.115      107687.87      51.385526    
    933000   305.00212     -43964.452     -14579.575      107800.26      51.385526    
    934000   304.46125     -43967.66      -14572.793      107930.79      51.385526    
    935000   306.99597     -44032.422     -14571.06       108059.37      51.385526    
    936000   303.79929     -43982.679     -14570.846      108169.71      51.385526    
    937000   306.62437     -43968.172     -14572.354      108293.96      51.385526    
    938000   305.97277     -43867.81      -14567.985      108408.77      51.385526    
    939000   301.43677     -43943.314     -14564.276      108541.85      51.385526    
    940000   303.69596     -43955.723     -14570.15       108656.86      51.385526    
    941000   306.49233     -43975.028     -14569.559      108777.42      51.385526    
    942000   306.31149     -44023.738     -14567.701      108893.94      51.385526    
    943000   306.65837     -43971.665     -14571.595      109017.99      51.385526    
    944000   307.80128     -44017.42      -14568.735      109118.59      51.385526    
    945000   305.316       -44038.295     -14566.465      109234.85      51.385526    
    946000   305.99454     -43981.41      -14569.328      109344.83      51.385526    
    947000   305.57392     -43993.947     -14564.985      109467.49      51.385526    
    948000   304.80208     -43957.274     -14567.608      109604.22      51.385526    
    949000   306.15145     -44011.312     -14564.854      109718.71      51.385526    
    950000   304.36411     -43974.586     -14568.354      109835.28      51.385526    
    951000   303.7162      -44038.06      -14565.918      109966.39      51.385526    
    952000   307.51278     -44017.165     -14568.286      110083.63      51.385526    
    953000   304.26438     -43938.863     -14562.313      110193.45      51.385526    
    954000   303.79256     -43986.72      -14564.82       110289.74      51.385526    
    955000   305.33161     -43964.782     -14558.337      110412.29      51.385526    
    956000   303.24164     -43990.505     -14556.919      110547.22      51.385526    
    957000   306.17178     -43963.405     -14560.732      110673.09      51.385526    
    958000   306.61147     -43968.828     -14564.268      110788.28      51.385526    
    959000   303.41643     -43938.708     -14555.973      110899.01      51.385526    
    960000   307.1459      -44003.821     -14560.954      111018.01      51.385526    
    961000   303.22463     -43984.367     -14556.078      111141.53      51.385526    
    962000   305.58953     -44041.08      -14557.475      111251.01      51.385526    
    963000   303.75632     -43928.585     -14558.681      111372.28      51.385526    
    964000   304.74588     -44004.139     -14558.291      111477.55      51.385526    
    965000   304.43064     -43927.364     -14556.458      111571.12      51.385526    
    966000   306.13498     -43937.022     -14555.434      111680.87      51.385526    
    967000   304.77297     -44027.011     -14553.098      111804.7       51.385526    
    968000   306.21388     -43992.913     -14555.026      111922.11      51.385526    
    969000   307.25115     -44015.174     -14552.367      112030.96      51.385526    
    970000   305.05837     -44021.877     -14547.277      112146.71      51.385526    
    971000   305.98793     -44005.943     -14551.855      112264.73      51.385526    
    972000   306.63173     -43963.39      -14553.222      112363.53      51.385526    
    973000   305.92291     -44018.928     -14554.616      112483.39      51.385526    
    974000   306.56744     -43955.22      -14547.89       112606.51      51.385526    
    975000   307.93752     -44004.789     -14549.817      112725.21      51.385526    
    976000   305.71453     -44011.556     -14550.474      112827.79      51.385526    
    977000   303.05658     -43998.976     -14548.941      112938.23      51.385526    
    978000   305.19331     -44003.595     -14545.678      113058.39      51.385526    
    979000   304.45351     -43892.994     -14549.036      113177.3       51.385526    
    980000   305.23766     -44009.574     -14547.72       113303.63      51.385526    
    981000   302.92104     -43979.009     -14543.451      113418.84      51.385526    
    982000   304.20772     -43954.574     -14545.947      113534.26      51.385526    
    983000   304.10043     -43963.11      -14547.109      113631.91      51.385526    
    984000   303.27095     -44015.015     -14544.153      113748.48      51.385526    
    985000   304.19298     -43986.794     -14544.714      113864.46      51.385526    
    986000   307.5966      -43968.067     -14544.934      113974.78      51.385526    
    987000   302.65136     -43960.918     -14545.563      114088.88      51.385526    
    988000   302.13365     -43969.637     -14539.385      114205.06      51.385526    
    989000   307.79852     -44023.144     -14543.796      114328.7       51.385526    
    990000   308.38784     -44009.383     -14545.967      114442.44      51.385526    
    991000   304.75426     -43992.331     -14541.127      114555.21      51.385526    
    992000   304.69968     -44021.162     -14541.71       114662.63      51.385526    
    993000   305.49897     -44016.085     -14539.641      114783.01      51.385526    
    994000   307.30707     -43977.049     -14546.471      114913.2       51.385526    
    995000   306.44224     -43996.357     -14543.005      115030.58      51.385526    
    996000   303.60206     -43971.547     -14538.605      115134.38      51.385526    
    997000   304.15261     -43997.941     -14538.302      115270.09      51.385526    
    998000   306.53414     -43897.465     -14536.759      115388.47      51.385526    
    999000   307.28029     -43915.53      -14540.71       115507.4       51.385526    
   1000000   308.74642     -43991.183     -14539.065      115626.98      51.385526    
   1001000   306.76038     -43966.373     -14538.528      115750.63      51.385526    
   1002000   303.89175     -43967.559     -14537.753      115859.16      51.385526    
   1003000   306.39599     -43972.092     -14535.55       115983.63      51.385526    
   1004000   307.44328     -43974.491     -14538.496      116086.76      51.385526    
   1005000   305.17567     -43970.322     -14533.294      116200.79      51.385526    
   1006000   307.38784     -43930.622     -14535.804      116322.68      51.385526    
   1007000   305.03665     -43973.179     -14537.467      116439.76      51.385526    
   1008000   307.09907     -43976.262     -14535.118      116563.81      51.385526    
   1009000   304.7422      -43963.71      -14531.596      116690.86      51.385526    
   1010000   303.97049     -43941.911     -14531.307      116807.72      51.385526    
   1011000   306.24894     -43976.143     -14530.278      116921.37      51.385526    
   1012000   306.47382     -43964.187     -14529.233      117027.31      51.385526    
   1013000   305.25752     -44052.636     -14530.448      117144.74      51.385526    
   1014000   306.84103     -43975.747     -14528.997      117258.86      51.385526    
   1015000   304.62523     -44021.464     -14527.633      117387.27      51.385526    
   1016000   305.63448     -43967.143     -14528.755      117504         51.385526    
   1017000   304.94026     -43981.812     -14527.581      117641.06      51.385526    
   1018000   307.22275     -44021.236     -14526.298      117783.87      51.385526    
   1019000   305.83926     -44008.418     -14525.735      117899.18      51.385526    
   1020000   305.69353     -43976.082     -14527.866      117998.64      51.385526    
Loop time of 11063.3 on 6 procs for 1000000 steps with 11606 atoms

Performance: 7.810 ns/day, 3.073 hours/ns, 90.389 timesteps/s, 1.049 Matom-step/s
90.0% CPU use with 6 MPI tasks x 1 OpenMP threads

MPI task timing breakdown:
Section |  min time  |  avg time  |  max time  |%varavg| %total
---------------------------------------------------------------
Pair    | 7197.8     | 7398.7     | 7534.6     | 120.3 | 66.88
Bond    | 385.2      | 397.65     | 411.18     |  38.7 |  3.59
Kspace  | 2053.2     | 2182.8     | 2384.5     | 217.8 | 19.73
Neigh   | 723.96     | 724.16     | 724.29     |   0.4 |  6.55
Comm    | 286.65     | 291.41     | 301.3      |  29.8 |  2.63
Output  | 0.096739   | 0.10796    | 0.14783    |   5.5 |  0.00
Modify  | 22.469     | 22.99      | 23.713     |   7.9 |  0.21
Other   |            | 45.44      |            |       |  0.41

Nlocal:        1934.33 ave        1983 max        1874 min
Histogram: 1 0 1 0 0 0 1 2 0 1
Nghost:        11333.5 ave       11418 max       11290 min
Histogram: 3 0 0 1 0 1 0 0 0 1
Neighs:         598467 ave      605986 max      585191 min
Histogram: 1 0 0 0 1 0 0 1 2 1

Total # of neighbors = 3590804
Ave neighs/atom = 309.39204
Ave special neighs/atom = 10.910736
Neighbor list builds = 34737
Dangerous builds = 0

write_data      structure_ultem_thermal.data
System init for write_data ...
PPPM initialization ...
  using 12-bit tables for long-range coulomb (src/kspace.cpp:342)
  G vector (1/distance) = 0.23878019
  grid = 20 20 20
  stencil order = 5
  estimated absolute RMS force accuracy = 0.032824742
  estimated relative force accuracy = 9.8850734e-05
  using double precision FFTW3
  3d grid and FFT values/proc = 4875 1600
Generated 45 of 45 mixed pair_coeff terms from arithmetic mixing rule
Total wall time: 3:07:58
